*SPEF "ieee 1481-1999"
*DESIGN "ZeroToFiveCounter"
*DATE "12:24:26 Monday May 19, 2025"
*VENDOR "The OpenROAD Project"
*PROGRAM "OpenROAD"
*VERSION "b16bda7e82721d10566ff7e2b68f1ff0be9f9e38"
*DESIGN_FLOW "NAME_SCOPE LOCAL" "PIN_CAP NONE"
*DIVIDER /
*DELIMITER :
*BUS_DELIMITER []
*T_UNIT 1 NS
*C_UNIT 1 PF
*R_UNIT 1 OHM
*L_UNIT 1 HENRY

*NAME_MAP
*3 net10
*4 net11
*5 net12
*6 net13
*7 net14
*8 net15
*9 net16
*10 net9
*11 clk
*12 rst
*13 seg[0]
*14 seg[1]
*15 seg[2]
*16 seg[3]
*17 seg[4]
*18 seg[5]
*19 seg[6]
*20 _000_
*21 _001_
*22 _002_
*23 _003_
*24 _004_
*25 _005_
*26 _006_
*27 _007_
*28 _008_
*29 _009_
*30 _010_
*31 _011_
*32 _012_
*33 _013_
*34 _014_
*35 _015_
*36 _016_
*37 _017_
*38 _018_
*39 _019_
*40 _020_
*41 _021_
*42 _022_
*43 _023_
*44 _024_
*45 _025_
*46 _026_
*47 _027_
*48 _028_
*49 _029_
*50 _030_
*51 _031_
*52 _032_
*53 _033_
*54 _034_
*55 _035_
*56 _036_
*57 _037_
*58 _038_
*59 _039_
*60 _040_
*61 _041_
*62 _042_
*63 _043_
*64 _044_
*65 _045_
*66 _046_
*67 _047_
*68 _048_
*69 _049_
*70 _050_
*71 _051_
*72 _052_
*73 _053_
*74 _054_
*75 _055_
*76 _056_
*77 _057_
*78 _058_
*79 _059_
*80 _060_
*81 _061_
*82 _062_
*83 _063_
*84 _064_
*85 _065_
*86 _066_
*87 _067_
*88 _068_
*89 _069_
*90 _070_
*91 _071_
*92 _072_
*93 _073_
*94 _074_
*95 _075_
*96 _076_
*97 _077_
*98 _078_
*99 _079_
*100 _080_
*101 _081_
*102 _082_
*103 _083_
*104 _084_
*105 _085_
*106 _086_
*107 _087_
*108 _088_
*109 _089_
*110 _090_
*111 _091_
*112 _092_
*113 _093_
*114 _094_
*115 _095_
*116 _096_
*117 _097_
*118 _098_
*119 _099_
*120 _100_
*121 _101_
*122 _102_
*123 _103_
*124 _104_
*125 _105_
*126 _106_
*127 _107_
*128 _108_
*129 _109_
*130 _110_
*131 _111_
*132 _112_
*133 _113_
*134 _114_
*135 _115_
*136 _116_
*137 _117_
*138 _118_
*139 _119_
*140 _120_
*141 _121_
*142 _122_
*143 _123_
*144 _124_
*145 _125_
*146 _126_
*147 _127_
*148 _128_
*149 _129_
*150 _130_
*151 _131_
*152 _132_
*153 _133_
*154 _134_
*155 _135_
*156 _136_
*157 _137_
*158 _138_
*159 _139_
*160 _140_
*161 _141_
*162 _142_
*163 _143_
*164 _144_
*165 _145_
*166 _146_
*167 _147_
*168 _148_
*169 _149_
*170 _150_
*171 _151_
*172 _152_
*173 _153_
*174 _154_
*175 _155_
*176 _156_
*177 _157_
*178 _158_
*179 _159_
*180 _160_
*181 _161_
*182 clknet_0_clk
*183 clknet_2_0__leaf_clk
*184 clknet_2_1__leaf_clk
*185 clknet_2_2__leaf_clk
*186 clknet_2_3__leaf_clk
*187 decoder\.digit\[0\]
*188 decoder\.digit\[1\]
*189 decoder\.digit\[2\]
*190 decoder\.digit\[3\]
*191 net1
*192 net2
*193 net3
*194 net4
*195 net5
*196 net6
*197 net7
*198 net8
*199 one_second_counter\[0\]
*200 one_second_counter\[10\]
*201 one_second_counter\[11\]
*202 one_second_counter\[12\]
*203 one_second_counter\[13\]
*204 one_second_counter\[14\]
*205 one_second_counter\[15\]
*206 one_second_counter\[16\]
*207 one_second_counter\[17\]
*208 one_second_counter\[18\]
*209 one_second_counter\[19\]
*210 one_second_counter\[1\]
*211 one_second_counter\[20\]
*212 one_second_counter\[21\]
*213 one_second_counter\[22\]
*214 one_second_counter\[23\]
*215 one_second_counter\[24\]
*216 one_second_counter\[25\]
*217 one_second_counter\[26\]
*218 one_second_counter\[2\]
*219 one_second_counter\[3\]
*220 one_second_counter\[4\]
*221 one_second_counter\[5\]
*222 one_second_counter\[6\]
*223 one_second_counter\[7\]
*224 one_second_counter\[8\]
*225 one_second_counter\[9\]
*226 one_second_enable
*227 ANTENNA_1
*228 ANTENNA_10
*229 ANTENNA_11
*230 ANTENNA_2
*231 ANTENNA_3
*232 ANTENNA_4
*233 ANTENNA_5
*234 ANTENNA_6
*235 ANTENNA_7
*236 ANTENNA_8
*237 ANTENNA_9
*238 FILLER_0_0_109
*239 FILLER_0_0_113
*240 FILLER_0_0_125
*241 FILLER_0_0_137
*242 FILLER_0_0_141
*243 FILLER_0_0_149
*244 FILLER_0_0_15
*245 FILLER_0_0_155
*246 FILLER_0_0_167
*247 FILLER_0_0_169
*248 FILLER_0_0_181
*249 FILLER_0_0_193
*250 FILLER_0_0_197
*251 FILLER_0_0_209
*252 FILLER_0_0_217
*253 FILLER_0_0_222
*254 FILLER_0_0_225
*255 FILLER_0_0_229
*256 FILLER_0_0_27
*257 FILLER_0_0_29
*258 FILLER_0_0_3
*259 FILLER_0_0_41
*260 FILLER_0_0_53
*261 FILLER_0_0_57
*262 FILLER_0_0_69
*263 FILLER_0_0_73
*264 FILLER_0_0_83
*265 FILLER_0_0_85
*266 FILLER_0_0_97
*267 FILLER_0_10_102
*268 FILLER_0_10_114
*269 FILLER_0_10_126
*270 FILLER_0_10_138
*271 FILLER_0_10_141
*272 FILLER_0_10_15
*273 FILLER_0_10_153
*274 FILLER_0_10_165
*275 FILLER_0_10_183
*276 FILLER_0_10_195
*277 FILLER_0_10_197
*278 FILLER_0_10_209
*279 FILLER_0_10_221
*280 FILLER_0_10_229
*281 FILLER_0_10_27
*282 FILLER_0_10_3
*283 FILLER_0_10_32
*284 FILLER_0_10_44
*285 FILLER_0_10_56
*286 FILLER_0_10_60
*287 FILLER_0_10_66
*288 FILLER_0_10_78
*289 FILLER_0_10_90
*290 FILLER_0_11_109
*291 FILLER_0_11_113
*292 FILLER_0_11_120
*293 FILLER_0_11_132
*294 FILLER_0_11_138
*295 FILLER_0_11_142
*296 FILLER_0_11_15
*297 FILLER_0_11_154
*298 FILLER_0_11_166
*299 FILLER_0_11_169
*300 FILLER_0_11_181
*301 FILLER_0_11_190
*302 FILLER_0_11_202
*303 FILLER_0_11_214
*304 FILLER_0_11_223
*305 FILLER_0_11_225
*306 FILLER_0_11_27
*307 FILLER_0_11_3
*308 FILLER_0_11_39
*309 FILLER_0_11_51
*310 FILLER_0_11_55
*311 FILLER_0_11_57
*312 FILLER_0_11_75
*313 FILLER_0_11_83
*314 FILLER_0_12_109
*315 FILLER_0_12_124
*316 FILLER_0_12_128
*317 FILLER_0_12_141
*318 FILLER_0_12_153
*319 FILLER_0_12_165
*320 FILLER_0_12_177
*321 FILLER_0_12_18
*322 FILLER_0_12_189
*323 FILLER_0_12_195
*324 FILLER_0_12_197
*325 FILLER_0_12_209
*326 FILLER_0_12_221
*327 FILLER_0_12_26
*328 FILLER_0_12_29
*329 FILLER_0_12_41
*330 FILLER_0_12_49
*331 FILLER_0_12_53
*332 FILLER_0_12_6
*333 FILLER_0_12_60
*334 FILLER_0_12_72
*335 FILLER_0_12_85
*336 FILLER_0_12_97
*337 FILLER_0_13_109
*338 FILLER_0_13_113
*339 FILLER_0_13_125
*340 FILLER_0_13_137
*341 FILLER_0_13_141
*342 FILLER_0_13_145
*343 FILLER_0_13_149
*344 FILLER_0_13_15
*345 FILLER_0_13_161
*346 FILLER_0_13_167
*347 FILLER_0_13_169
*348 FILLER_0_13_181
*349 FILLER_0_13_193
*350 FILLER_0_13_205
*351 FILLER_0_13_21
*352 FILLER_0_13_217
*353 FILLER_0_13_222
*354 FILLER_0_13_225
*355 FILLER_0_13_229
*356 FILLER_0_13_28
*357 FILLER_0_13_3
*358 FILLER_0_13_40
*359 FILLER_0_13_52
*360 FILLER_0_13_57
*361 FILLER_0_13_79
*362 FILLER_0_13_85
*363 FILLER_0_13_97
*364 FILLER_0_14_109
*365 FILLER_0_14_121
*366 FILLER_0_14_129
*367 FILLER_0_14_136
*368 FILLER_0_14_15
*369 FILLER_0_14_162
*370 FILLER_0_14_166
*371 FILLER_0_14_171
*372 FILLER_0_14_183
*373 FILLER_0_14_195
*374 FILLER_0_14_197
*375 FILLER_0_14_209
*376 FILLER_0_14_221
*377 FILLER_0_14_27
*378 FILLER_0_14_29
*379 FILLER_0_14_3
*380 FILLER_0_14_41
*381 FILLER_0_14_53
*382 FILLER_0_14_59
*383 FILLER_0_14_81
*384 FILLER_0_14_85
*385 FILLER_0_14_97
*386 FILLER_0_15_111
*387 FILLER_0_15_113
*388 FILLER_0_15_125
*389 FILLER_0_15_137
*390 FILLER_0_15_149
*391 FILLER_0_15_15
*392 FILLER_0_15_161
*393 FILLER_0_15_167
*394 FILLER_0_15_169
*395 FILLER_0_15_181
*396 FILLER_0_15_19
*397 FILLER_0_15_193
*398 FILLER_0_15_205
*399 FILLER_0_15_217
*400 FILLER_0_15_223
*401 FILLER_0_15_225
*402 FILLER_0_15_229
*403 FILLER_0_15_23
*404 FILLER_0_15_3
*405 FILLER_0_15_35
*406 FILLER_0_15_47
*407 FILLER_0_15_55
*408 FILLER_0_15_57
*409 FILLER_0_15_61
*410 FILLER_0_15_85
*411 FILLER_0_15_97
*412 FILLER_0_16_113
*413 FILLER_0_16_125
*414 FILLER_0_16_13
*415 FILLER_0_16_139
*416 FILLER_0_16_141
*417 FILLER_0_16_153
*418 FILLER_0_16_161
*419 FILLER_0_16_167
*420 FILLER_0_16_179
*421 FILLER_0_16_191
*422 FILLER_0_16_195
*423 FILLER_0_16_197
*424 FILLER_0_16_209
*425 FILLER_0_16_25
*426 FILLER_0_16_29
*427 FILLER_0_16_3
*428 FILLER_0_16_40
*429 FILLER_0_16_48
*430 FILLER_0_16_70
*431 FILLER_0_16_78
*432 FILLER_0_16_85
*433 FILLER_0_16_9
*434 FILLER_0_17_101
*435 FILLER_0_17_108
*436 FILLER_0_17_118
*437 FILLER_0_17_130
*438 FILLER_0_17_142
*439 FILLER_0_17_15
*440 FILLER_0_17_154
*441 FILLER_0_17_159
*442 FILLER_0_17_167
*443 FILLER_0_17_169
*444 FILLER_0_17_181
*445 FILLER_0_17_193
*446 FILLER_0_17_205
*447 FILLER_0_17_217
*448 FILLER_0_17_223
*449 FILLER_0_17_225
*450 FILLER_0_17_229
*451 FILLER_0_17_27
*452 FILLER_0_17_3
*453 FILLER_0_17_39
*454 FILLER_0_17_51
*455 FILLER_0_17_55
*456 FILLER_0_17_57
*457 FILLER_0_17_69
*458 FILLER_0_17_81
*459 FILLER_0_17_93
*460 FILLER_0_18_105
*461 FILLER_0_18_128
*462 FILLER_0_18_141
*463 FILLER_0_18_15
*464 FILLER_0_18_156
*465 FILLER_0_18_169
*466 FILLER_0_18_181
*467 FILLER_0_18_193
*468 FILLER_0_18_197
*469 FILLER_0_18_209
*470 FILLER_0_18_221
*471 FILLER_0_18_27
*472 FILLER_0_18_29
*473 FILLER_0_18_3
*474 FILLER_0_18_41
*475 FILLER_0_18_53
*476 FILLER_0_18_85
*477 FILLER_0_18_97
*478 FILLER_0_19_104
*479 FILLER_0_19_113
*480 FILLER_0_19_125
*481 FILLER_0_19_133
*482 FILLER_0_19_158
*483 FILLER_0_19_16
*484 FILLER_0_19_166
*485 FILLER_0_19_169
*486 FILLER_0_19_181
*487 FILLER_0_19_193
*488 FILLER_0_19_205
*489 FILLER_0_19_217
*490 FILLER_0_19_223
*491 FILLER_0_19_225
*492 FILLER_0_19_24
*493 FILLER_0_19_3
*494 FILLER_0_19_31
*495 FILLER_0_19_43
*496 FILLER_0_19_55
*497 FILLER_0_19_80
*498 FILLER_0_19_9
*499 FILLER_0_19_92
*500 FILLER_0_1_10
*501 FILLER_0_1_103
*502 FILLER_0_1_108
*503 FILLER_0_1_113
*504 FILLER_0_1_122
*505 FILLER_0_1_134
*506 FILLER_0_1_146
*507 FILLER_0_1_154
*508 FILLER_0_1_160
*509 FILLER_0_1_169
*510 FILLER_0_1_181
*511 FILLER_0_1_185
*512 FILLER_0_1_193
*513 FILLER_0_1_201
*514 FILLER_0_1_213
*515 FILLER_0_1_22
*516 FILLER_0_1_221
*517 FILLER_0_1_225
*518 FILLER_0_1_3
*519 FILLER_0_1_49
*520 FILLER_0_1_55
*521 FILLER_0_1_57
*522 FILLER_0_1_65
*523 FILLER_0_1_91
*524 FILLER_0_20_113
*525 FILLER_0_20_125
*526 FILLER_0_20_137
*527 FILLER_0_20_141
*528 FILLER_0_20_145
*529 FILLER_0_20_15
*530 FILLER_0_20_155
*531 FILLER_0_20_162
*532 FILLER_0_20_174
*533 FILLER_0_20_186
*534 FILLER_0_20_194
*535 FILLER_0_20_197
*536 FILLER_0_20_205
*537 FILLER_0_20_27
*538 FILLER_0_20_29
*539 FILLER_0_20_3
*540 FILLER_0_20_41
*541 FILLER_0_20_53
*542 FILLER_0_20_65
*543 FILLER_0_20_73
*544 FILLER_0_20_78
*545 FILLER_0_20_85
*546 FILLER_0_20_91
*547 FILLER_0_21_102
*548 FILLER_0_21_110
*549 FILLER_0_21_136
*550 FILLER_0_21_144
*551 FILLER_0_21_15
*552 FILLER_0_21_169
*553 FILLER_0_21_173
*554 FILLER_0_21_180
*555 FILLER_0_21_192
*556 FILLER_0_21_204
*557 FILLER_0_21_216
*558 FILLER_0_21_225
*559 FILLER_0_21_23
*560 FILLER_0_21_3
*561 FILLER_0_21_30
*562 FILLER_0_21_42
*563 FILLER_0_21_48
*564 FILLER_0_21_78
*565 FILLER_0_21_90
*566 FILLER_0_22_104
*567 FILLER_0_22_116
*568 FILLER_0_22_128
*569 FILLER_0_22_135
*570 FILLER_0_22_139
*571 FILLER_0_22_141
*572 FILLER_0_22_15
*573 FILLER_0_22_153
*574 FILLER_0_22_165
*575 FILLER_0_22_177
*576 FILLER_0_22_189
*577 FILLER_0_22_195
*578 FILLER_0_22_197
*579 FILLER_0_22_209
*580 FILLER_0_22_221
*581 FILLER_0_22_27
*582 FILLER_0_22_29
*583 FILLER_0_22_3
*584 FILLER_0_22_41
*585 FILLER_0_22_46
*586 FILLER_0_22_80
*587 FILLER_0_22_85
*588 FILLER_0_22_97
*589 FILLER_0_23_101
*590 FILLER_0_23_107
*591 FILLER_0_23_111
*592 FILLER_0_23_113
*593 FILLER_0_23_125
*594 FILLER_0_23_13
*595 FILLER_0_23_137
*596 FILLER_0_23_149
*597 FILLER_0_23_157
*598 FILLER_0_23_162
*599 FILLER_0_23_169
*600 FILLER_0_23_181
*601 FILLER_0_23_190
*602 FILLER_0_23_21
*603 FILLER_0_23_215
*604 FILLER_0_23_223
*605 FILLER_0_23_225
*606 FILLER_0_23_229
*607 FILLER_0_23_3
*608 FILLER_0_23_50
*609 FILLER_0_23_60
*610 FILLER_0_23_72
*611 FILLER_0_23_9
*612 FILLER_0_24_106
*613 FILLER_0_24_112
*614 FILLER_0_24_117
*615 FILLER_0_24_129
*616 FILLER_0_24_141
*617 FILLER_0_24_153
*618 FILLER_0_24_165
*619 FILLER_0_24_177
*620 FILLER_0_24_189
*621 FILLER_0_24_195
*622 FILLER_0_24_197
*623 FILLER_0_24_209
*624 FILLER_0_24_220
*625 FILLER_0_24_232
*626 FILLER_0_24_26
*627 FILLER_0_24_29
*628 FILLER_0_24_33
*629 FILLER_0_24_45
*630 FILLER_0_24_57
*631 FILLER_0_24_69
*632 FILLER_0_24_81
*633 FILLER_0_24_85
*634 FILLER_0_24_98
*635 FILLER_0_25_111
*636 FILLER_0_25_113
*637 FILLER_0_25_125
*638 FILLER_0_25_149
*639 FILLER_0_25_15
*640 FILLER_0_25_153
*641 FILLER_0_25_164
*642 FILLER_0_25_169
*643 FILLER_0_25_181
*644 FILLER_0_25_193
*645 FILLER_0_25_205
*646 FILLER_0_25_213
*647 FILLER_0_25_218
*648 FILLER_0_25_225
*649 FILLER_0_25_229
*650 FILLER_0_25_27
*651 FILLER_0_25_3
*652 FILLER_0_25_39
*653 FILLER_0_25_51
*654 FILLER_0_25_55
*655 FILLER_0_25_57
*656 FILLER_0_25_63
*657 FILLER_0_25_75
*658 FILLER_0_25_87
*659 FILLER_0_25_99
*660 FILLER_0_26_104
*661 FILLER_0_26_116
*662 FILLER_0_26_122
*663 FILLER_0_26_132
*664 FILLER_0_26_144
*665 FILLER_0_26_15
*666 FILLER_0_26_172
*667 FILLER_0_26_184
*668 FILLER_0_26_197
*669 FILLER_0_26_209
*670 FILLER_0_26_221
*671 FILLER_0_26_27
*672 FILLER_0_26_29
*673 FILLER_0_26_3
*674 FILLER_0_26_41
*675 FILLER_0_26_53
*676 FILLER_0_26_65
*677 FILLER_0_26_77
*678 FILLER_0_26_83
*679 FILLER_0_26_85
*680 FILLER_0_26_92
*681 FILLER_0_27_101
*682 FILLER_0_27_11
*683 FILLER_0_27_111
*684 FILLER_0_27_118
*685 FILLER_0_27_162
*686 FILLER_0_27_172
*687 FILLER_0_27_176
*688 FILLER_0_27_180
*689 FILLER_0_27_192
*690 FILLER_0_27_204
*691 FILLER_0_27_216
*692 FILLER_0_27_23
*693 FILLER_0_27_232
*694 FILLER_0_27_3
*695 FILLER_0_27_35
*696 FILLER_0_27_39
*697 FILLER_0_27_48
*698 FILLER_0_27_57
*699 FILLER_0_27_69
*700 FILLER_0_27_81
*701 FILLER_0_27_93
*702 FILLER_0_28_103
*703 FILLER_0_28_130
*704 FILLER_0_28_134
*705 FILLER_0_28_141
*706 FILLER_0_28_15
*707 FILLER_0_28_153
*708 FILLER_0_28_165
*709 FILLER_0_28_177
*710 FILLER_0_28_189
*711 FILLER_0_28_195
*712 FILLER_0_28_197
*713 FILLER_0_28_209
*714 FILLER_0_28_221
*715 FILLER_0_28_229
*716 FILLER_0_28_27
*717 FILLER_0_28_29
*718 FILLER_0_28_3
*719 FILLER_0_28_41
*720 FILLER_0_28_53
*721 FILLER_0_28_65
*722 FILLER_0_28_77
*723 FILLER_0_28_83
*724 FILLER_0_28_85
*725 FILLER_0_28_97
*726 FILLER_0_29_111
*727 FILLER_0_29_113
*728 FILLER_0_29_125
*729 FILLER_0_29_137
*730 FILLER_0_29_14
*731 FILLER_0_29_149
*732 FILLER_0_29_161
*733 FILLER_0_29_167
*734 FILLER_0_29_169
*735 FILLER_0_29_181
*736 FILLER_0_29_196
*737 FILLER_0_29_208
*738 FILLER_0_29_220
*739 FILLER_0_29_225
*740 FILLER_0_29_26
*741 FILLER_0_29_32
*742 FILLER_0_29_53
*743 FILLER_0_29_57
*744 FILLER_0_29_61
*745 FILLER_0_29_65
*746 FILLER_0_29_75
*747 FILLER_0_29_87
*748 FILLER_0_29_99
*749 FILLER_0_2_101
*750 FILLER_0_2_113
*751 FILLER_0_2_125
*752 FILLER_0_2_137
*753 FILLER_0_2_141
*754 FILLER_0_2_149
*755 FILLER_0_2_161
*756 FILLER_0_2_17
*757 FILLER_0_2_173
*758 FILLER_0_2_185
*759 FILLER_0_2_193
*760 FILLER_0_2_197
*761 FILLER_0_2_209
*762 FILLER_0_2_221
*763 FILLER_0_2_24
*764 FILLER_0_2_29
*765 FILLER_0_2_3
*766 FILLER_0_2_33
*767 FILLER_0_2_37
*768 FILLER_0_2_48
*769 FILLER_0_2_56
*770 FILLER_0_2_83
*771 FILLER_0_2_89
*772 FILLER_0_30_10
*773 FILLER_0_30_105
*774 FILLER_0_30_112
*775 FILLER_0_30_124
*776 FILLER_0_30_136
*777 FILLER_0_30_141
*778 FILLER_0_30_153
*779 FILLER_0_30_165
*780 FILLER_0_30_177
*781 FILLER_0_30_189
*782 FILLER_0_30_195
*783 FILLER_0_30_197
*784 FILLER_0_30_208
*785 FILLER_0_30_212
*786 FILLER_0_30_219
*787 FILLER_0_30_22
*788 FILLER_0_30_227
*789 FILLER_0_30_3
*790 FILLER_0_30_52
*791 FILLER_0_30_58
*792 FILLER_0_30_79
*793 FILLER_0_30_83
*794 FILLER_0_30_85
*795 FILLER_0_30_97
*796 FILLER_0_31_107
*797 FILLER_0_31_111
*798 FILLER_0_31_113
*799 FILLER_0_31_128
*800 FILLER_0_31_137
*801 FILLER_0_31_149
*802 FILLER_0_31_15
*803 FILLER_0_31_157
*804 FILLER_0_31_167
*805 FILLER_0_31_169
*806 FILLER_0_31_181
*807 FILLER_0_31_189
*808 FILLER_0_31_201
*809 FILLER_0_31_213
*810 FILLER_0_31_221
*811 FILLER_0_31_225
*812 FILLER_0_31_27
*813 FILLER_0_31_3
*814 FILLER_0_31_47
*815 FILLER_0_31_55
*816 FILLER_0_31_57
*817 FILLER_0_31_65
*818 FILLER_0_31_71
*819 FILLER_0_31_83
*820 FILLER_0_31_95
*821 FILLER_0_32_109
*822 FILLER_0_32_133
*823 FILLER_0_32_139
*824 FILLER_0_32_141
*825 FILLER_0_32_15
*826 FILLER_0_32_153
*827 FILLER_0_32_165
*828 FILLER_0_32_177
*829 FILLER_0_32_189
*830 FILLER_0_32_195
*831 FILLER_0_32_197
*832 FILLER_0_32_209
*833 FILLER_0_32_217
*834 FILLER_0_32_222
*835 FILLER_0_32_230
*836 FILLER_0_32_27
*837 FILLER_0_32_29
*838 FILLER_0_32_3
*839 FILLER_0_32_35
*840 FILLER_0_32_39
*841 FILLER_0_32_51
*842 FILLER_0_32_59
*843 FILLER_0_32_64
*844 FILLER_0_32_76
*845 FILLER_0_32_85
*846 FILLER_0_32_97
*847 FILLER_0_33_104
*848 FILLER_0_33_113
*849 FILLER_0_33_128
*850 FILLER_0_33_140
*851 FILLER_0_33_15
*852 FILLER_0_33_152
*853 FILLER_0_33_164
*854 FILLER_0_33_172
*855 FILLER_0_33_184
*856 FILLER_0_33_196
*857 FILLER_0_33_208
*858 FILLER_0_33_220
*859 FILLER_0_33_225
*860 FILLER_0_33_229
*861 FILLER_0_33_27
*862 FILLER_0_33_3
*863 FILLER_0_33_39
*864 FILLER_0_33_51
*865 FILLER_0_33_55
*866 FILLER_0_33_57
*867 FILLER_0_33_69
*868 FILLER_0_33_81
*869 FILLER_0_33_93
*870 FILLER_0_34_106
*871 FILLER_0_34_110
*872 FILLER_0_34_138
*873 FILLER_0_34_141
*874 FILLER_0_34_15
*875 FILLER_0_34_153
*876 FILLER_0_34_165
*877 FILLER_0_34_177
*878 FILLER_0_34_189
*879 FILLER_0_34_195
*880 FILLER_0_34_202
*881 FILLER_0_34_214
*882 FILLER_0_34_226
*883 FILLER_0_34_232
*884 FILLER_0_34_27
*885 FILLER_0_34_29
*886 FILLER_0_34_3
*887 FILLER_0_34_41
*888 FILLER_0_34_49
*889 FILLER_0_34_55
*890 FILLER_0_34_67
*891 FILLER_0_34_80
*892 FILLER_0_35_109
*893 FILLER_0_35_11
*894 FILLER_0_35_113
*895 FILLER_0_35_125
*896 FILLER_0_35_137
*897 FILLER_0_35_141
*898 FILLER_0_35_153
*899 FILLER_0_35_165
*900 FILLER_0_35_169
*901 FILLER_0_35_181
*902 FILLER_0_35_193
*903 FILLER_0_35_197
*904 FILLER_0_35_209
*905 FILLER_0_35_221
*906 FILLER_0_35_225
*907 FILLER_0_35_229
*908 FILLER_0_35_23
*909 FILLER_0_35_27
*910 FILLER_0_35_29
*911 FILLER_0_35_3
*912 FILLER_0_35_41
*913 FILLER_0_35_53
*914 FILLER_0_35_57
*915 FILLER_0_35_69
*916 FILLER_0_35_73
*917 FILLER_0_35_77
*918 FILLER_0_35_83
*919 FILLER_0_35_85
*920 FILLER_0_35_97
*921 FILLER_0_3_105
*922 FILLER_0_3_111
*923 FILLER_0_3_119
*924 FILLER_0_3_131
*925 FILLER_0_3_139
*926 FILLER_0_3_144
*927 FILLER_0_3_15
*928 FILLER_0_3_159
*929 FILLER_0_3_167
*930 FILLER_0_3_169
*931 FILLER_0_3_181
*932 FILLER_0_3_193
*933 FILLER_0_3_208
*934 FILLER_0_3_217
*935 FILLER_0_3_223
*936 FILLER_0_3_225
*937 FILLER_0_3_229
*938 FILLER_0_3_3
*939 FILLER_0_3_44
*940 FILLER_0_3_57
*941 FILLER_0_3_69
*942 FILLER_0_3_81
*943 FILLER_0_3_93
*944 FILLER_0_4_109
*945 FILLER_0_4_11
*946 FILLER_0_4_121
*947 FILLER_0_4_133
*948 FILLER_0_4_139
*949 FILLER_0_4_141
*950 FILLER_0_4_153
*951 FILLER_0_4_165
*952 FILLER_0_4_177
*953 FILLER_0_4_189
*954 FILLER_0_4_195
*955 FILLER_0_4_197
*956 FILLER_0_4_209
*957 FILLER_0_4_217
*958 FILLER_0_4_22
*959 FILLER_0_4_223
*960 FILLER_0_4_231
*961 FILLER_0_4_3
*962 FILLER_0_4_36
*963 FILLER_0_4_40
*964 FILLER_0_4_45
*965 FILLER_0_4_57
*966 FILLER_0_4_69
*967 FILLER_0_4_7
*968 FILLER_0_4_81
*969 FILLER_0_4_85
*970 FILLER_0_4_93
*971 FILLER_0_4_97
*972 FILLER_0_5_110
*973 FILLER_0_5_113
*974 FILLER_0_5_125
*975 FILLER_0_5_137
*976 FILLER_0_5_149
*977 FILLER_0_5_15
*978 FILLER_0_5_161
*979 FILLER_0_5_167
*980 FILLER_0_5_169
*981 FILLER_0_5_181
*982 FILLER_0_5_189
*983 FILLER_0_5_196
*984 FILLER_0_5_208
*985 FILLER_0_5_220
*986 FILLER_0_5_225
*987 FILLER_0_5_229
*988 FILLER_0_5_27
*989 FILLER_0_5_3
*990 FILLER_0_5_39
*991 FILLER_0_5_51
*992 FILLER_0_5_55
*993 FILLER_0_5_62
*994 FILLER_0_5_74
*995 FILLER_0_5_86
*996 FILLER_0_5_98
*997 FILLER_0_6_108
*998 FILLER_0_6_120
*999 FILLER_0_6_132
*1000 FILLER_0_6_14
*1001 FILLER_0_6_141
*1002 FILLER_0_6_153
*1003 FILLER_0_6_165
*1004 FILLER_0_6_177
*1005 FILLER_0_6_189
*1006 FILLER_0_6_195
*1007 FILLER_0_6_197
*1008 FILLER_0_6_209
*1009 FILLER_0_6_218
*1010 FILLER_0_6_230
*1011 FILLER_0_6_26
*1012 FILLER_0_6_3
*1013 FILLER_0_6_32
*1014 FILLER_0_6_43
*1015 FILLER_0_6_55
*1016 FILLER_0_6_67
*1017 FILLER_0_6_79
*1018 FILLER_0_6_83
*1019 FILLER_0_6_85
*1020 FILLER_0_6_92
*1021 FILLER_0_7_105
*1022 FILLER_0_7_111
*1023 FILLER_0_7_113
*1024 FILLER_0_7_125
*1025 FILLER_0_7_137
*1026 FILLER_0_7_145
*1027 FILLER_0_7_149
*1028 FILLER_0_7_15
*1029 FILLER_0_7_161
*1030 FILLER_0_7_167
*1031 FILLER_0_7_173
*1032 FILLER_0_7_185
*1033 FILLER_0_7_197
*1034 FILLER_0_7_209
*1035 FILLER_0_7_221
*1036 FILLER_0_7_225
*1037 FILLER_0_7_24
*1038 FILLER_0_7_3
*1039 FILLER_0_7_36
*1040 FILLER_0_7_48
*1041 FILLER_0_7_57
*1042 FILLER_0_7_63
*1043 FILLER_0_7_69
*1044 FILLER_0_7_81
*1045 FILLER_0_7_93
*1046 FILLER_0_8_106
*1047 FILLER_0_8_118
*1048 FILLER_0_8_130
*1049 FILLER_0_8_138
*1050 FILLER_0_8_15
*1051 FILLER_0_8_157
*1052 FILLER_0_8_169
*1053 FILLER_0_8_181
*1054 FILLER_0_8_189
*1055 FILLER_0_8_195
*1056 FILLER_0_8_197
*1057 FILLER_0_8_205
*1058 FILLER_0_8_213
*1059 FILLER_0_8_221
*1060 FILLER_0_8_225
*1061 FILLER_0_8_229
*1062 FILLER_0_8_27
*1063 FILLER_0_8_29
*1064 FILLER_0_8_3
*1065 FILLER_0_8_41
*1066 FILLER_0_8_53
*1067 FILLER_0_8_65
*1068 FILLER_0_8_77
*1069 FILLER_0_8_83
*1070 FILLER_0_8_85
*1071 FILLER_0_8_89
*1072 FILLER_0_9_111
*1073 FILLER_0_9_113
*1074 FILLER_0_9_125
*1075 FILLER_0_9_129
*1076 FILLER_0_9_141
*1077 FILLER_0_9_15
*1078 FILLER_0_9_153
*1079 FILLER_0_9_167
*1080 FILLER_0_9_169
*1081 FILLER_0_9_181
*1082 FILLER_0_9_193
*1083 FILLER_0_9_205
*1084 FILLER_0_9_217
*1085 FILLER_0_9_225
*1086 FILLER_0_9_229
*1087 FILLER_0_9_3
*1088 FILLER_0_9_41
*1089 FILLER_0_9_53
*1090 FILLER_0_9_57
*1091 FILLER_0_9_63
*1092 FILLER_0_9_75
*1093 FILLER_0_9_87
*1094 FILLER_0_9_99
*1095 PHY_EDGE_ROW_0_Left_36
*1096 PHY_EDGE_ROW_0_Right_0
*1097 PHY_EDGE_ROW_10_Left_46
*1098 PHY_EDGE_ROW_10_Right_10
*1099 PHY_EDGE_ROW_11_Left_47
*1100 PHY_EDGE_ROW_11_Right_11
*1101 PHY_EDGE_ROW_12_Left_48
*1102 PHY_EDGE_ROW_12_Right_12
*1103 PHY_EDGE_ROW_13_Left_49
*1104 PHY_EDGE_ROW_13_Right_13
*1105 PHY_EDGE_ROW_14_Left_50
*1106 PHY_EDGE_ROW_14_Right_14
*1107 PHY_EDGE_ROW_15_Left_51
*1108 PHY_EDGE_ROW_15_Right_15
*1109 PHY_EDGE_ROW_16_Left_52
*1110 PHY_EDGE_ROW_16_Right_16
*1111 PHY_EDGE_ROW_17_Left_53
*1112 PHY_EDGE_ROW_17_Right_17
*1113 PHY_EDGE_ROW_18_Left_54
*1114 PHY_EDGE_ROW_18_Right_18
*1115 PHY_EDGE_ROW_19_Left_55
*1116 PHY_EDGE_ROW_19_Right_19
*1117 PHY_EDGE_ROW_1_Left_37
*1118 PHY_EDGE_ROW_1_Right_1
*1119 PHY_EDGE_ROW_20_Left_56
*1120 PHY_EDGE_ROW_20_Right_20
*1121 PHY_EDGE_ROW_21_Left_57
*1122 PHY_EDGE_ROW_21_Right_21
*1123 PHY_EDGE_ROW_22_Left_58
*1124 PHY_EDGE_ROW_22_Right_22
*1125 PHY_EDGE_ROW_23_Left_59
*1126 PHY_EDGE_ROW_23_Right_23
*1127 PHY_EDGE_ROW_24_Left_60
*1128 PHY_EDGE_ROW_24_Right_24
*1129 PHY_EDGE_ROW_25_Left_61
*1130 PHY_EDGE_ROW_25_Right_25
*1131 PHY_EDGE_ROW_26_Left_62
*1132 PHY_EDGE_ROW_26_Right_26
*1133 PHY_EDGE_ROW_27_Left_63
*1134 PHY_EDGE_ROW_27_Right_27
*1135 PHY_EDGE_ROW_28_Left_64
*1136 PHY_EDGE_ROW_28_Right_28
*1137 PHY_EDGE_ROW_29_Left_65
*1138 PHY_EDGE_ROW_29_Right_29
*1139 PHY_EDGE_ROW_2_Left_38
*1140 PHY_EDGE_ROW_2_Right_2
*1141 PHY_EDGE_ROW_30_Left_66
*1142 PHY_EDGE_ROW_30_Right_30
*1143 PHY_EDGE_ROW_31_Left_67
*1144 PHY_EDGE_ROW_31_Right_31
*1145 PHY_EDGE_ROW_32_Left_68
*1146 PHY_EDGE_ROW_32_Right_32
*1147 PHY_EDGE_ROW_33_Left_69
*1148 PHY_EDGE_ROW_33_Right_33
*1149 PHY_EDGE_ROW_34_Left_70
*1150 PHY_EDGE_ROW_34_Right_34
*1151 PHY_EDGE_ROW_35_Left_71
*1152 PHY_EDGE_ROW_35_Right_35
*1153 PHY_EDGE_ROW_3_Left_39
*1154 PHY_EDGE_ROW_3_Right_3
*1155 PHY_EDGE_ROW_4_Left_40
*1156 PHY_EDGE_ROW_4_Right_4
*1157 PHY_EDGE_ROW_5_Left_41
*1158 PHY_EDGE_ROW_5_Right_5
*1159 PHY_EDGE_ROW_6_Left_42
*1160 PHY_EDGE_ROW_6_Right_6
*1161 PHY_EDGE_ROW_7_Left_43
*1162 PHY_EDGE_ROW_7_Right_7
*1163 PHY_EDGE_ROW_8_Left_44
*1164 PHY_EDGE_ROW_8_Right_8
*1165 PHY_EDGE_ROW_9_Left_45
*1166 PHY_EDGE_ROW_9_Right_9
*1167 TAP_TAPCELL_ROW_0_72
*1168 TAP_TAPCELL_ROW_0_73
*1169 TAP_TAPCELL_ROW_0_74
*1170 TAP_TAPCELL_ROW_0_75
*1171 TAP_TAPCELL_ROW_0_76
*1172 TAP_TAPCELL_ROW_0_77
*1173 TAP_TAPCELL_ROW_0_78
*1174 TAP_TAPCELL_ROW_0_79
*1175 TAP_TAPCELL_ROW_10_116
*1176 TAP_TAPCELL_ROW_10_117
*1177 TAP_TAPCELL_ROW_10_118
*1178 TAP_TAPCELL_ROW_10_119
*1179 TAP_TAPCELL_ROW_11_120
*1180 TAP_TAPCELL_ROW_11_121
*1181 TAP_TAPCELL_ROW_11_122
*1182 TAP_TAPCELL_ROW_11_123
*1183 TAP_TAPCELL_ROW_12_124
*1184 TAP_TAPCELL_ROW_12_125
*1185 TAP_TAPCELL_ROW_12_126
*1186 TAP_TAPCELL_ROW_12_127
*1187 TAP_TAPCELL_ROW_13_128
*1188 TAP_TAPCELL_ROW_13_129
*1189 TAP_TAPCELL_ROW_13_130
*1190 TAP_TAPCELL_ROW_13_131
*1191 TAP_TAPCELL_ROW_14_132
*1192 TAP_TAPCELL_ROW_14_133
*1193 TAP_TAPCELL_ROW_14_134
*1194 TAP_TAPCELL_ROW_14_135
*1195 TAP_TAPCELL_ROW_15_136
*1196 TAP_TAPCELL_ROW_15_137
*1197 TAP_TAPCELL_ROW_15_138
*1198 TAP_TAPCELL_ROW_15_139
*1199 TAP_TAPCELL_ROW_16_140
*1200 TAP_TAPCELL_ROW_16_141
*1201 TAP_TAPCELL_ROW_16_142
*1202 TAP_TAPCELL_ROW_16_143
*1203 TAP_TAPCELL_ROW_17_144
*1204 TAP_TAPCELL_ROW_17_145
*1205 TAP_TAPCELL_ROW_17_146
*1206 TAP_TAPCELL_ROW_17_147
*1207 TAP_TAPCELL_ROW_18_148
*1208 TAP_TAPCELL_ROW_18_149
*1209 TAP_TAPCELL_ROW_18_150
*1210 TAP_TAPCELL_ROW_18_151
*1211 TAP_TAPCELL_ROW_19_152
*1212 TAP_TAPCELL_ROW_19_153
*1213 TAP_TAPCELL_ROW_19_154
*1214 TAP_TAPCELL_ROW_19_155
*1215 TAP_TAPCELL_ROW_1_80
*1216 TAP_TAPCELL_ROW_1_81
*1217 TAP_TAPCELL_ROW_1_82
*1218 TAP_TAPCELL_ROW_1_83
*1219 TAP_TAPCELL_ROW_20_156
*1220 TAP_TAPCELL_ROW_20_157
*1221 TAP_TAPCELL_ROW_20_158
*1222 TAP_TAPCELL_ROW_20_159
*1223 TAP_TAPCELL_ROW_21_160
*1224 TAP_TAPCELL_ROW_21_161
*1225 TAP_TAPCELL_ROW_21_162
*1226 TAP_TAPCELL_ROW_21_163
*1227 TAP_TAPCELL_ROW_22_164
*1228 TAP_TAPCELL_ROW_22_165
*1229 TAP_TAPCELL_ROW_22_166
*1230 TAP_TAPCELL_ROW_22_167
*1231 TAP_TAPCELL_ROW_23_168
*1232 TAP_TAPCELL_ROW_23_169
*1233 TAP_TAPCELL_ROW_23_170
*1234 TAP_TAPCELL_ROW_23_171
*1235 TAP_TAPCELL_ROW_24_172
*1236 TAP_TAPCELL_ROW_24_173
*1237 TAP_TAPCELL_ROW_24_174
*1238 TAP_TAPCELL_ROW_24_175
*1239 TAP_TAPCELL_ROW_25_176
*1240 TAP_TAPCELL_ROW_25_177
*1241 TAP_TAPCELL_ROW_25_178
*1242 TAP_TAPCELL_ROW_25_179
*1243 TAP_TAPCELL_ROW_26_180
*1244 TAP_TAPCELL_ROW_26_181
*1245 TAP_TAPCELL_ROW_26_182
*1246 TAP_TAPCELL_ROW_26_183
*1247 TAP_TAPCELL_ROW_27_184
*1248 TAP_TAPCELL_ROW_27_185
*1249 TAP_TAPCELL_ROW_27_186
*1250 TAP_TAPCELL_ROW_27_187
*1251 TAP_TAPCELL_ROW_28_188
*1252 TAP_TAPCELL_ROW_28_189
*1253 TAP_TAPCELL_ROW_28_190
*1254 TAP_TAPCELL_ROW_28_191
*1255 TAP_TAPCELL_ROW_29_192
*1256 TAP_TAPCELL_ROW_29_193
*1257 TAP_TAPCELL_ROW_29_194
*1258 TAP_TAPCELL_ROW_29_195
*1259 TAP_TAPCELL_ROW_2_84
*1260 TAP_TAPCELL_ROW_2_85
*1261 TAP_TAPCELL_ROW_2_86
*1262 TAP_TAPCELL_ROW_2_87
*1263 TAP_TAPCELL_ROW_30_196
*1264 TAP_TAPCELL_ROW_30_197
*1265 TAP_TAPCELL_ROW_30_198
*1266 TAP_TAPCELL_ROW_30_199
*1267 TAP_TAPCELL_ROW_31_200
*1268 TAP_TAPCELL_ROW_31_201
*1269 TAP_TAPCELL_ROW_31_202
*1270 TAP_TAPCELL_ROW_31_203
*1271 TAP_TAPCELL_ROW_32_204
*1272 TAP_TAPCELL_ROW_32_205
*1273 TAP_TAPCELL_ROW_32_206
*1274 TAP_TAPCELL_ROW_32_207
*1275 TAP_TAPCELL_ROW_33_208
*1276 TAP_TAPCELL_ROW_33_209
*1277 TAP_TAPCELL_ROW_33_210
*1278 TAP_TAPCELL_ROW_33_211
*1279 TAP_TAPCELL_ROW_34_212
*1280 TAP_TAPCELL_ROW_34_213
*1281 TAP_TAPCELL_ROW_34_214
*1282 TAP_TAPCELL_ROW_34_215
*1283 TAP_TAPCELL_ROW_35_216
*1284 TAP_TAPCELL_ROW_35_217
*1285 TAP_TAPCELL_ROW_35_218
*1286 TAP_TAPCELL_ROW_35_219
*1287 TAP_TAPCELL_ROW_35_220
*1288 TAP_TAPCELL_ROW_35_221
*1289 TAP_TAPCELL_ROW_35_222
*1290 TAP_TAPCELL_ROW_35_223
*1291 TAP_TAPCELL_ROW_3_88
*1292 TAP_TAPCELL_ROW_3_89
*1293 TAP_TAPCELL_ROW_3_90
*1294 TAP_TAPCELL_ROW_3_91
*1295 TAP_TAPCELL_ROW_4_92
*1296 TAP_TAPCELL_ROW_4_93
*1297 TAP_TAPCELL_ROW_4_94
*1298 TAP_TAPCELL_ROW_4_95
*1299 TAP_TAPCELL_ROW_5_96
*1300 TAP_TAPCELL_ROW_5_97
*1301 TAP_TAPCELL_ROW_5_98
*1302 TAP_TAPCELL_ROW_5_99
*1303 TAP_TAPCELL_ROW_6_100
*1304 TAP_TAPCELL_ROW_6_101
*1305 TAP_TAPCELL_ROW_6_102
*1306 TAP_TAPCELL_ROW_6_103
*1307 TAP_TAPCELL_ROW_7_104
*1308 TAP_TAPCELL_ROW_7_105
*1309 TAP_TAPCELL_ROW_7_106
*1310 TAP_TAPCELL_ROW_7_107
*1311 TAP_TAPCELL_ROW_8_108
*1312 TAP_TAPCELL_ROW_8_109
*1313 TAP_TAPCELL_ROW_8_110
*1314 TAP_TAPCELL_ROW_8_111
*1315 TAP_TAPCELL_ROW_9_112
*1316 TAP_TAPCELL_ROW_9_113
*1317 TAP_TAPCELL_ROW_9_114
*1318 TAP_TAPCELL_ROW_9_115
*1319 ZeroToFiveCounter_10
*1320 ZeroToFiveCounter_11
*1321 ZeroToFiveCounter_12
*1322 ZeroToFiveCounter_13
*1323 ZeroToFiveCounter_14
*1324 ZeroToFiveCounter_15
*1325 ZeroToFiveCounter_16
*1326 ZeroToFiveCounter_9
*1327 _162_
*1328 _163_
*1329 _164_
*1330 _165_
*1331 _166_
*1332 _167_
*1333 _168_
*1334 _169_
*1335 _170_
*1336 _171_
*1337 _172_
*1338 _173_
*1339 _174_
*1340 _175_
*1341 _176_
*1342 _177_
*1343 _178_
*1344 _179_
*1345 _180_
*1346 _181_
*1347 _182_
*1348 _183_
*1349 _184_
*1350 _185_
*1351 _186_
*1352 _187_
*1353 _188_
*1354 _189_
*1355 _190_
*1356 _191_
*1357 _192_
*1358 _193_
*1359 _194_
*1360 _195_
*1361 _196_
*1362 _197_
*1363 _198_
*1364 _199_
*1365 _200_
*1366 _201_
*1367 _202_
*1368 _203_
*1369 _204_
*1370 _205_
*1371 _206_
*1372 _207_
*1373 _208_
*1374 _209_
*1375 _210_
*1376 _211_
*1377 _212_
*1378 _213_
*1379 _214_
*1380 _215_
*1381 _216_
*1382 _217_
*1383 _218_
*1384 _219_
*1385 _220_
*1386 _221_
*1387 _222_
*1388 _223_
*1389 _224_
*1390 _225_
*1391 _226_
*1392 _227_
*1393 _228_
*1394 _229_
*1395 _230_
*1396 _231_
*1397 _232_
*1398 _233_
*1399 _234_
*1400 _235_
*1401 _236_
*1402 _237_
*1403 _238_
*1404 _239_
*1405 _240_
*1406 _241_
*1407 _242_
*1408 _243_
*1409 _244_
*1410 _245_
*1411 _246_
*1412 _247_
*1413 _248_
*1414 _249_
*1415 _250_
*1416 _251_
*1417 _252_
*1418 _253_
*1419 _254_
*1420 _255_
*1421 _256_
*1422 _257_
*1423 _258_
*1424 _259_
*1425 _260_
*1426 _261_
*1427 _262_
*1428 _263_
*1429 _264_
*1430 _265_
*1431 _266_
*1432 _267_
*1433 _268_
*1434 _269_
*1435 _270_
*1436 _271_
*1437 _272_
*1438 _273_
*1439 _274_
*1440 _275_
*1441 _276_
*1442 _277_
*1443 _278_
*1444 _279_
*1445 _280_
*1446 _281_
*1447 _282_
*1448 _283_
*1449 _284_
*1450 _285_
*1451 _286_
*1452 _287_
*1453 _288_
*1454 _289_
*1455 _290_
*1456 _291_
*1457 _292_
*1458 _293_
*1459 _294_
*1460 _295_
*1461 _296_
*1462 _297_
*1463 _298_
*1464 _299_
*1465 _300_
*1466 _301_
*1467 _302_
*1468 _303_
*1469 _304_
*1470 _305_
*1471 _306_
*1472 _307_
*1473 _308_
*1474 _309_
*1475 _310_
*1476 _311_
*1477 _312_
*1478 _313_
*1479 _314_
*1480 _315_
*1481 _316_
*1482 _317_
*1483 _318_
*1484 _319_
*1485 _320_
*1486 _321_
*1487 _322_
*1488 _323_
*1489 _324_
*1490 _325_
*1491 _326_
*1492 _327_
*1493 _328_
*1494 _329_
*1495 _330_
*1496 _331_
*1497 _332_
*1498 _333_
*1499 _334_
*1500 _335_
*1501 _336_
*1502 _337_
*1503 _338_
*1504 _339_
*1505 _340_
*1506 _341_
*1507 _342_
*1508 _343_
*1509 _344_
*1510 _345_
*1511 _346_
*1512 _347_
*1513 _348_
*1514 _349_
*1515 _350_
*1516 _351_
*1517 _352_
*1518 _353_
*1519 _354_
*1520 _355_
*1521 _356_
*1522 _357_
*1523 _358_
*1524 _359_
*1525 _360_
*1526 _361_
*1527 _370_
*1528 clkbuf_0_clk
*1529 clkbuf_2_0__f_clk
*1530 clkbuf_2_1__f_clk
*1531 clkbuf_2_2__f_clk
*1532 clkbuf_2_3__f_clk
*1533 clkload0
*1534 clkload1
*1535 clkload2
*1536 input1
*1537 output2
*1538 output3
*1539 output4
*1540 output5
*1541 output6
*1542 output7
*1543 output8

*PORTS
an[0] O
an[1] O
an[2] O
an[3] O
an[4] O
an[5] O
an[6] O
an[7] O
clk I
rst I
seg[0] O
seg[1] O
seg[2] O
seg[3] O
seg[4] O
seg[5] O
seg[6] O

*D_NET *3 0.000617837
*CONN
*P an[0] O
*I *1319:HI O *D sky130_fd_sc_hd__conb_1
*CAP
1 an[0] 0.000308918
2 *1319:HI 0.000308918
3 an[0] an[1] 0
*RES
1 *1319:HI an[0] 5.35677 
*END

*D_NET *4 0.000738177
*CONN
*P an[1] O
*I *1320:HI O *D sky130_fd_sc_hd__conb_1
*CAP
1 an[1] 0.000369088
2 *1320:HI 0.000369088
3 an[1] an[2] 0
4 an[0] an[1] 0
*RES
1 *1320:HI an[1] 6.37677 
*END

*D_NET *5 0.000531921
*CONN
*P an[2] O
*I *1321:HI O *D sky130_fd_sc_hd__conb_1
*CAP
1 an[2] 0.000265961
2 *1321:HI 0.000265961
3 an[2] an[3] 0
4 an[1] an[2] 0
*RES
1 *1321:HI an[2] 6.67217 
*END

*D_NET *6 0.0007171
*CONN
*P an[3] O
*I *1322:HI O *D sky130_fd_sc_hd__conb_1
*CAP
1 an[3] 0.00035855
2 *1322:HI 0.00035855
3 an[3] an[4] 0
4 an[2] an[3] 0
*RES
1 *1322:HI an[3] 5.86677 
*END

*D_NET *7 0.000623354
*CONN
*P an[4] O
*I *1323:HI O *D sky130_fd_sc_hd__conb_1
*CAP
1 an[4] 0.000309594
2 *1323:HI 0.000309594
3 an[4] an[5] 0
4 an[4] *1364:A1 4.1652e-06
5 an[3] an[4] 0
*RES
1 *1323:HI an[4] 5.35677 
*END

*D_NET *8 0.000751485
*CONN
*P an[5] O
*I *1324:HI O *D sky130_fd_sc_hd__conb_1
*CAP
1 an[5] 0.000375742
2 *1324:HI 0.000375742
3 an[5] an[6] 0
4 an[4] an[5] 0
*RES
1 *1324:HI an[5] 6.37677 
*END

*D_NET *9 0.000539914
*CONN
*P an[6] O
*I *1325:HI O *D sky130_fd_sc_hd__conb_1
*CAP
1 an[6] 0.000269957
2 *1325:HI 0.000269957
3 an[6] an[7] 0
4 an[5] an[6] 0
*RES
1 *1325:HI an[6] 6.67217 
*END

*D_NET *10 0.000589492
*CONN
*P an[7] O
*I *1326:LO O *D sky130_fd_sc_hd__conb_1
*CAP
1 an[7] 0.000284903
2 *1326:LO 0.000284903
3 an[7] seg[0] 0
4 an[7] *214:14 1.96856e-05
5 an[6] an[7] 0
*RES
1 *1326:LO an[7] 4.84677 
*END

*D_NET *11 0.0147824
*CONN
*P clk I
*I *1528:A I *D sky130_fd_sc_hd__clkbuf_16
*CAP
1 clk 0.00554858
2 *1528:A 0.00554858
3 *1528:A *1346:D 0
4 *1528:A *1380:A1 0.00174832
5 *1528:A *1415:A 0.00114729
6 *1528:A *1529:A 0
7 *1528:A *87:24 0.000345554
8 *1528:A *105:20 9.66667e-05
9 *1528:A *146:26 0
10 *1528:A *181:58 0.000347378
*RES
1 clk *1528:A 19.48 
*END

*D_NET *12 0.000696484
*CONN
*P rst I
*I *1536:A I *D sky130_fd_sc_hd__clkbuf_4
*CAP
1 rst 0.000300849
2 *1536:A 0.000300849
3 *1536:A *1341:B1 9.47866e-05
*RES
1 rst *1536:A 6.69003 
*END

*D_NET *13 0.000551787
*CONN
*P seg[0] O
*I *1537:X O *D sky130_fd_sc_hd__buf_1
*CAP
1 seg[0] 0.000275893
2 *1537:X 0.000275893
3 seg[0] seg[1] 0
4 seg[0] *1378:A 0
5 an[7] seg[0] 0
*RES
1 *1537:X seg[0] 4.84677 
*END

*D_NET *14 0.000685126
*CONN
*P seg[1] O
*I *1538:X O *D sky130_fd_sc_hd__buf_1
*CAP
1 seg[1] 0.000342563
2 *1538:X 0.000342563
3 seg[1] seg[2] 0
4 seg[0] seg[1] 0
*RES
1 *1538:X seg[1] 5.86677 
*END

*D_NET *15 0.000551839
*CONN
*P seg[2] O
*I *1539:X O *D sky130_fd_sc_hd__buf_1
*CAP
1 seg[2] 0.00027592
2 *1539:X 0.00027592
3 seg[2] seg[3] 0
4 seg[1] seg[2] 0
*RES
1 *1539:X seg[2] 6.67217 
*END

*D_NET *16 0.000714408
*CONN
*P seg[3] O
*I *1540:X O *D sky130_fd_sc_hd__buf_1
*CAP
1 seg[3] 0.000357204
2 *1540:X 0.000357204
3 seg[3] seg[4] 0
4 seg[3] *43:14 0
5 seg[2] seg[3] 0
*RES
1 *1540:X seg[3] 5.86677 
*END

*D_NET *17 0.000558809
*CONN
*P seg[4] O
*I *1541:X O *D sky130_fd_sc_hd__buf_1
*CAP
1 seg[4] 0.000279404
2 *1541:X 0.000279404
3 seg[4] seg[5] 0
4 seg[3] seg[4] 0
*RES
1 *1541:X seg[4] 4.84677 
*END

*D_NET *18 0.000708279
*CONN
*P seg[5] O
*I *1542:X O *D sky130_fd_sc_hd__buf_1
*CAP
1 seg[5] 0.000328403
2 *1542:X 0.000328403
3 seg[5] seg[6] 0
4 seg[5] *1542:A 5.14723e-05
5 seg[4] seg[5] 0
*RES
1 *1542:X seg[5] 5.86677 
*END

*D_NET *19 0.000558882
*CONN
*P seg[6] O
*I *1543:X O *D sky130_fd_sc_hd__buf_1
*CAP
1 seg[6] 0.000279441
2 *1543:X 0.000279441
3 seg[5] seg[6] 0
*RES
1 *1543:X seg[6] 6.67217 
*END

*D_NET *20 0.0160653
*CONN
*I *1495:D I *D sky130_fd_sc_hd__dfrtp_4
*I *1355:Y O *D sky130_fd_sc_hd__nor2_1
*CAP
1 *1495:D 0.00110467
2 *1355:Y 0.00050827
3 *20:12 0.00227647
4 *20:8 0.00168007
5 *1495:D *1353:A 0.000392347
6 *1495:D *1365:B 0.000222487
7 *1495:D *1495:CLK 5.05521e-05
8 *1495:D *106:8 0.00170526
9 *1495:D *106:29 7.63179e-05
10 *1495:D *134:37 0.00139122
11 *1495:D *146:26 0.000129676
12 *20:8 *1355:B 0.000128851
13 *20:8 *1436:B 0.000381866
14 *20:12 *1405:A 0
15 *20:12 *1417:B 0.000676626
16 *20:12 *1499:D 0.000605957
17 *20:12 *45:24 3.52569e-05
18 *20:12 *134:14 0.00296122
19 *20:12 *134:37 0
20 *20:12 *151:12 0.00173815
*RES
1 *1355:Y *20:8 10.26 
2 *20:8 *20:12 42.395 
3 *20:12 *1495:D 33.13 
*END

*D_NET *21 0.00648162
*CONN
*I *1505:D I *D sky130_fd_sc_hd__dfrtp_4
*I *1391:X O *D sky130_fd_sc_hd__clkbuf_1
*CAP
1 *1505:D 0.0022336
2 *1391:X 0.0022336
3 *1505:D *1331:B 5.43539e-05
4 *1505:D *1359:A 0.00032807
5 *1505:D *1440:A2 9.30878e-05
6 *1505:D *1443:A 0.00079128
7 *1505:D *1489:A 7.25441e-05
8 *1505:D *1505:RESET_B 0
9 *1505:D *1518:CLK 0.000245967
10 *1505:D *1518:RESET_B 0.00033731
11 *1505:D *1526:RESET_B 0
12 *1505:D *100:14 9.18057e-05
13 *1505:D *170:76 0
*RES
1 *1391:X *1505:D 48.91 
*END

*D_NET *22 0.0146957
*CONN
*I *1506:D I *D sky130_fd_sc_hd__dfrtp_2
*I *1394:Y O *D sky130_fd_sc_hd__nor3_1
*CAP
1 *1506:D 0.0019866
2 *1394:Y 0.00218713
3 *22:20 0.00417373
4 *1506:D *1441:A1 6.38599e-05
5 *1506:D *1473:A 0.000153816
6 *1506:D *1506:RESET_B 0.000704383
7 *1506:D *1507:CLK 0.000150557
8 *1506:D *1507:RESET_B 0.000622625
9 *1506:D *166:10 7.50427e-05
10 *1506:D *176:12 7.33689e-05
11 *1506:D *180:70 4.39259e-05
12 *1506:D *202:57 7.79812e-05
13 *22:20 *230:DIODE 6.36548e-05
14 *22:20 *1333:B1 0.000279289
15 *22:20 *1357:A 4.87935e-05
16 *22:20 *1358:C 6.87428e-05
17 *22:20 *1386:A 0.000945949
18 *22:20 *1394:B 8.65961e-05
19 *22:20 *1394:C 0.000206323
20 *22:20 *1428:A 3.59531e-06
21 *22:20 *1455:B 8.3928e-05
22 *22:20 *1459:B1_N 4.92345e-05
23 *22:20 *1485:A 8.49205e-05
24 *22:20 *1511:RESET_B 0.000219235
25 *22:20 *1512:RESET_B 4.30228e-05
26 *22:20 *47:12 1.79536e-05
27 *22:20 *76:50 2.41099e-05
28 *22:20 *85:10 9.04636e-05
29 *22:20 *95:113 1.31227e-05
30 *22:20 *129:8 1.56428e-05
31 *22:20 *134:47 0.000194139
32 *22:20 *139:14 0.000342773
33 *22:20 *180:70 6.00111e-05
34 *22:20 *181:75 0
35 *22:20 *186:34 0
36 *22:20 *188:31 0.000564433
37 *22:20 *189:87 1.90887e-05
38 *22:20 *198:16 6.49533e-05
39 *22:20 *205:50 0.000235338
40 *22:20 *210:62 9.39388e-06
41 *22:20 *211:27 0.000130779
42 *22:20 *213:33 0.000417208
*RES
1 *1394:Y *22:20 48.86 
2 *22:20 *1506:D 30.38 
*END

*D_NET *23 0.0102194
*CONN
*I *1507:D I *D sky130_fd_sc_hd__dfrtp_4
*I *1398:X O *D sky130_fd_sc_hd__buf_1
*CAP
1 *1507:D 0.000396143
2 *1398:X 0.00148708
3 *23:16 0.00188322
4 *1507:D *1433:A1 0.000129951
5 *1507:D *1495:RESET_B 0.00111081
6 *1507:D *88:66 0.000389084
7 *1507:D *203:33 0.000680042
8 *23:16 *1334:A 0.00143752
9 *23:16 *1383:C 0.00031491
10 *23:16 *1390:C 0.000283551
11 *23:16 *1420:B1 0.000673323
12 *23:16 *203:33 1.08723e-05
13 *23:16 *217:10 0.00142285
*RES
1 *1398:X *23:16 37.24 
2 *23:16 *1507:D 17.22 
*END

*D_NET *24 0.000424003
*CONN
*I *1508:D I *D sky130_fd_sc_hd__dfrtp_2
*I *1402:X O *D sky130_fd_sc_hd__clkbuf_1
*CAP
1 *1508:D 9.34866e-05
2 *1402:X 9.34866e-05
3 *1508:D *1493:A 4.92062e-05
4 *1508:D *149:14 9.30787e-05
5 *1508:D *157:14 9.47454e-05
*RES
1 *1402:X *1508:D 9.12 
*END

*D_NET *25 0.0198508
*CONN
*I *1509:D I *D sky130_fd_sc_hd__dfrtp_2
*I *1407:X O *D sky130_fd_sc_hd__buf_1
*CAP
1 *1509:D 0.00589491
2 *1407:X 0.00589491
3 *1509:D *1341:A2 0
4 *1509:D *1342:D 0.000110198
5 *1509:D *1358:C 0.000134122
6 *1509:D *1381:B 0.000238173
7 *1509:D *1416:B 8.68767e-06
8 *1509:D *1450:A 0.000773638
9 *1509:D *1499:D 0.00381652
10 *1509:D *1509:RESET_B 0.000166349
11 *1509:D *1527:A 0.000217447
12 *1509:D *45:24 0.000243014
13 *1509:D *55:10 0.000324175
14 *1509:D *98:12 0.000107318
15 *1509:D *146:26 0
16 *1509:D *151:12 0.000392094
17 *1509:D *178:18 0.000207267
18 *1509:D *201:14 0.000140029
19 *1509:D *201:16 0.000142653
20 *1509:D *219:20 0.00103927
*RES
1 *1407:X *1509:D 38.1301 
*END

*D_NET *26 0.0120223
*CONN
*I *1510:D I *D sky130_fd_sc_hd__dfrtp_2
*I *1411:Y O *D sky130_fd_sc_hd__a211oi_1
*CAP
1 *1510:D 0.00117007
2 *1411:Y 0.0012794
3 *26:10 0.00244947
4 *1510:D *1364:B1 0.000895378
5 *1510:D *1404:A 7.35116e-05
6 *1510:D *1435:A 0.000389558
7 *1510:D *1510:RESET_B 7.07191e-05
8 *1510:D *1511:D 2.19562e-06
9 *1510:D *142:28 8.49302e-05
10 *1510:D *205:8 4.82863e-05
11 *1510:D *205:50 0.000173388
12 *1510:D *207:81 5.83121e-06
13 *26:10 *1432:D 0.000325331
14 *26:10 *1520:D 0.00105773
15 *26:10 *118:10 0.00227396
16 *26:10 *118:18 0.000707427
17 *26:10 *147:16 0.000431673
18 *26:10 *147:18 0.0001964
19 *26:10 *155:18 0.000227124
20 *26:10 *216:20 0.000159964
*RES
1 *1411:Y *26:10 49.565 
2 *26:10 *1510:D 20.23 
*END

*D_NET *27 0.00529905
*CONN
*I *1511:D I *D sky130_fd_sc_hd__dfrtp_4
*I *1415:X O *D sky130_fd_sc_hd__clkbuf_1
*CAP
1 *1511:D 0.00151026
2 *1415:X 0.00151026
3 *1511:D *1364:B1 5.04105e-05
4 *1511:D *1373:C 0.000158965
5 *1511:D *1386:D 0.000686375
6 *1511:D *1404:B 4.64564e-05
7 *1511:D *1484:A 0
8 *1511:D *1510:RESET_B 0.000119756
9 *1511:D *1511:CLK 7.60965e-05
10 *1511:D *54:16 0.000203178
11 *1511:D *120:18 0.00029086
12 *1511:D *129:10 0.000644244
13 *1510:D *1511:D 2.19562e-06
*RES
1 *1415:X *1511:D 36.645 
*END

*D_NET *28 0.0119256
*CONN
*I *1512:D I *D sky130_fd_sc_hd__dfrtp_4
*I *1417:Y O *D sky130_fd_sc_hd__nor2_1
*CAP
1 *1512:D 0.000858037
2 *1417:Y 0.000793942
3 *28:10 0.00165198
4 *1512:D *1345:A 6.07575e-06
5 *1512:D *1345:B 0.00084886
6 *1512:D *1345:D 0.00101193
7 *1512:D *1512:CLK 6.97202e-05
8 *1512:D *177:18 0.00167499
9 *1512:D *187:22 0.001569
10 *28:10 *1405:A 0.00132167
11 *28:10 *1417:B 0.00119257
12 *28:10 *1498:D 7.23533e-05
13 *28:10 *1499:D 0.000323336
14 *28:10 *151:12 0.000513599
15 *28:10 *164:12 0
16 *28:10 *218:14 1.75023e-05
*RES
1 *1417:Y *28:10 31.205 
2 *28:10 *1512:D 31.375 
*END

*D_NET *29 0.00944958
*CONN
*I *1513:D I *D sky130_fd_sc_hd__dfrtp_4
*I *1420:X O *D sky130_fd_sc_hd__o211a_1
*CAP
1 *1513:D 0.00267803
2 *1420:X 0.00267803
3 *1513:D *1331:B 0
4 *1513:D *1336:A2 0.000833453
5 *1513:D *1369:A 0.000275104
6 *1513:D *1383:A 0.000150231
7 *1513:D *1383:B 2.307e-05
8 *1513:D *1384:A 0
9 *1513:D *1433:A2 0
10 *1513:D *1443:B 0.000374656
11 *1513:D *1457:B 8.3303e-06
12 *1513:D *1502:D 4.366e-05
13 *1513:D *1526:CLK 4.11025e-05
14 *1513:D *1526:RESET_B 8.11444e-05
15 *1513:D *86:10 0
16 *1513:D *87:24 0.00120116
17 *1513:D *97:12 9.68083e-06
18 *1513:D *97:18 1.58143e-05
19 *1513:D *105:20 0.000235752
20 *1513:D *109:30 4.43871e-06
21 *1513:D *157:14 3.97576e-05
22 *1513:D *174:36 0.0003878
23 *1513:D *210:60 0.000368369
*RES
1 *1420:X *1513:D 35.6596 
*END

*D_NET *30 0.00857548
*CONN
*I *1514:D I *D sky130_fd_sc_hd__dfrtp_4
*I *1426:X O *D sky130_fd_sc_hd__buf_1
*CAP
1 *1514:D 0.00205841
2 *1426:X 0.00205841
3 *1514:D *1338:A1 3.24154e-05
4 *1514:D *1339:B1 0.000491145
5 *1514:D *1395:A 4.43871e-06
6 *1514:D *1514:RESET_B 0.000161961
7 *1514:D *39:22 0.000108835
8 *1514:D *47:28 0.00157317
9 *1514:D *50:30 0.000517399
10 *1514:D *187:111 2.59934e-06
11 *1514:D *189:95 0.000116313
12 *1514:D *202:57 0.00106085
13 *1514:D *208:41 5.98045e-05
14 *1514:D *208:108 6.22863e-05
15 *1514:D *209:39 0.000267444
*RES
1 *1426:X *1514:D 45.96 
*END

*D_NET *31 0.00972486
*CONN
*I *1496:D I *D sky130_fd_sc_hd__dfrtp_4
*I *1359:X O *D sky130_fd_sc_hd__buf_1
*CAP
1 *1496:D 0.000192822
2 *1359:X 0.00251739
3 *31:16 0.00271021
4 *1496:D *1363:A 0.000470529
5 *1496:D *1458:A 0.000482408
6 *1496:D *1496:CLK 7.30505e-05
7 *1496:D *1519:RESET_B 0.000113818
8 *1496:D *61:24 0.000121659
9 *31:16 *1337:B 1.52652e-05
10 *31:16 *1349:A3 0.000109534
11 *31:16 *1349:B1 0
12 *31:16 *1359:A 0.000160491
13 *31:16 *1471:A 0.000136877
14 *31:16 *36:12 0.00209406
15 *31:16 *143:18 0.000526739
16 *31:16 *174:36 0
*RES
1 *1359:X *31:16 49.4 
2 *31:16 *1496:D 10.33 
*END

*D_NET *32 0.0133378
*CONN
*I *1515:D I *D sky130_fd_sc_hd__dfrtp_1
*I *1430:X O *D sky130_fd_sc_hd__clkbuf_1
*CAP
1 *1515:D 0.000790723
2 *1430:X 0.00108865
3 *32:16 0.00187938
4 *1515:D *1492:A 4.8962e-05
5 *1515:D *1515:CLK 0.000303289
6 *1515:D *1517:D 0.000156408
7 *1515:D *1523:D 0.000102732
8 *1515:D *1523:RESET_B 0.000109319
9 *1515:D *146:26 0.000116216
10 *1515:D *166:10 0.00104478
11 *1515:D *187:12 5.73801e-05
12 *1515:D *191:16 0.000486505
13 *32:16 *1366:A 0.000128232
14 *32:16 *1393:B 0.000228237
15 *32:16 *1497:CLK 0.000121023
16 *32:16 *47:45 0.00150376
17 *32:16 *98:12 7.60206e-05
18 *32:16 *98:14 6.44978e-06
19 *32:16 *134:73 0.000501448
20 *32:16 *146:26 0.000339187
21 *32:16 *168:30 0.000522456
22 *32:16 *168:55 0.00108151
23 *32:16 *176:41 0.000424441
24 *32:16 *183:18 0.000916783
25 *32:16 *183:51 7.44125e-05
26 *32:16 *191:16 0.00116329
27 *32:16 *218:14 6.61627e-05
*RES
1 *1430:X *32:16 48.46 
2 *32:16 *1515:D 24.675 
*END

*D_NET *33 0.00542637
*CONN
*I *1516:D I *D sky130_fd_sc_hd__dfrtp_2
*I *1433:Y O *D sky130_fd_sc_hd__a211oi_1
*CAP
1 *1516:D 0.000891126
2 *1433:Y 0.000891126
3 *1516:D *1330:A 0.00109894
4 *1516:D *1332:B 0.000283967
5 *1516:D *1365:A_N 1.90818e-05
6 *1516:D *1369:A 5.1985e-06
7 *1516:D *1390:B 0.000236661
8 *1516:D *1400:A 3.87557e-05
9 *1516:D *1442:A 0.000697398
10 *1516:D *1516:CLK 0.000477223
11 *1516:D *88:66 5.74791e-05
12 *1516:D *95:36 1.1071e-05
13 *1516:D *163:12 0.000119242
14 *1516:D *184:97 9.92077e-05
15 *1516:D *187:34 0.00027512
16 *1516:D *202:10 0.000211112
17 *1516:D *210:60 1.36646e-05
*RES
1 *1433:Y *1516:D 32.46 
*END

*D_NET *34 0.000920409
*CONN
*I *1517:D I *D sky130_fd_sc_hd__dfrtp_1
*I *1437:X O *D sky130_fd_sc_hd__clkbuf_1
*CAP
1 *1517:D 0.00015929
2 *1437:X 0.00015929
3 *1517:D *1365:B 0.000187064
4 *1517:D *1366:A 8.39181e-05
5 *1517:D *166:10 0.00015976
6 *1517:D *191:16 1.46781e-05
7 *1515:D *1517:D 0.000156408
*RES
1 *1437:X *1517:D 12.405 
*END

*D_NET *35 0.00475059
*CONN
*I *1518:D I *D sky130_fd_sc_hd__dfrtp_2
*I *1440:Y O *D sky130_fd_sc_hd__a221oi_1
*CAP
1 *1518:D 0.00122542
2 *1440:Y 0.00122542
3 *1518:D *1411:C1 4.92861e-05
4 *1518:D *1487:A 2.61296e-05
5 *1518:D *1518:CLK 0.000118294
6 *1518:D *1518:RESET_B 0.000118081
7 *1518:D *47:95 0.000342254
8 *1518:D *47:108 0.000806019
9 *1518:D *47:110 0.00021229
10 *1518:D *74:20 0.000325221
11 *1518:D *133:10 0
12 *1518:D *181:162 0
13 *1518:D *207:110 0.000302188
*RES
1 *1440:Y *1518:D 33.3 
*END

*D_NET *36 0.0143454
*CONN
*I *1519:D I *D sky130_fd_sc_hd__dfrtp_4
*I *1443:Y O *D sky130_fd_sc_hd__nor3_1
*CAP
1 *1519:D 0.000182683
2 *1443:Y 0.000347668
3 *36:12 0.00323521
4 *36:10 0.00340019
5 *1519:D *1342:C 0.000155103
6 *1519:D *1409:A 5.16418e-05
7 *1519:D *178:18 0.000499912
8 *36:10 *43:14 0.000105068
9 *36:10 *179:54 0.000832038
10 *36:12 *1342:B 0.000839191
11 *36:12 *1359:A 0.00027299
12 *36:12 *1387:C 0.000120655
13 *36:12 *128:22 0.000711586
14 *36:12 *201:45 0.00149745
15 *31:16 *36:12 0.00209406
*RES
1 *1443:Y *36:10 15.14 
2 *36:10 *36:12 66 
3 *36:12 *1519:D 11.57 
*END

*D_NET *37 0.00792999
*CONN
*I *1520:D I *D sky130_fd_sc_hd__dfrtp_4
*I *1447:X O *D sky130_fd_sc_hd__clkbuf_1
*CAP
1 *1520:D 0.000336649
2 *1447:X 0.00114686
3 *37:24 0.00148351
4 *1520:D *1520:CLK 1.1392e-05
5 *1520:D *155:18 0.00105704
6 *37:24 *1374:B 0.000234088
7 *37:24 *1411:A1 0.000228863
8 *37:24 *44:12 0.000487303
9 *37:24 *129:10 0.000232786
10 *37:24 *165:26 0
11 *37:24 *204:53 0.000796466
12 *37:24 *214:14 0.000857314
13 *26:10 *1520:D 0.00105773
*RES
1 *1447:X *37:24 38.285 
2 *37:24 *1520:D 16.65 
*END

*D_NET *38 0.00649239
*CONN
*I *1521:D I *D sky130_fd_sc_hd__dfrtp_1
*I *1449:X O *D sky130_fd_sc_hd__o211a_1
*CAP
1 *1521:D 0.00140132
2 *1449:X 0.00140132
3 *1521:D *1336:B1 0
4 *1521:D *1337:B 0.000160338
5 *1521:D *1346:C 0.00103245
6 *1521:D *1346:D 0
7 *1521:D *1351:A2 0.000380122
8 *1521:D *1383:C 5.5017e-05
9 *1521:D *1395:A 0.000342173
10 *1521:D *1395:B 3.60738e-06
11 *1521:D *1399:A2 0.000369868
12 *1521:D *1433:A1 0.000138846
13 *1521:D *1521:CLK 1.99109e-05
14 *1521:D *57:16 6.51336e-05
15 *1521:D *68:18 0.000899477
16 *1521:D *174:36 0
17 *1521:D *202:57 5.92269e-05
18 *1521:D *225:29 0.00016358
*RES
1 *1449:X *1521:D 40.56 
*END

*D_NET *39 0.0204661
*CONN
*I *1497:D I *D sky130_fd_sc_hd__dfrtp_4
*I *229:DIODE I *D sky130_fd_sc_hd__diode_2
*I *1363:X O *D sky130_fd_sc_hd__buf_1
*CAP
1 *1497:D 0.000121478
2 *229:DIODE 1.36602e-05
3 *1363:X 0.00646378
4 *39:22 0.00659891
5 *229:DIODE *1366:A 3.96153e-05
6 *229:DIODE *98:12 4.12756e-05
7 *1497:D *1366:A 3.69766e-05
8 *1497:D *1497:CLK 0.000269727
9 *1497:D *1497:RESET_B 6.00027e-05
10 *1497:D *98:12 3.01127e-05
11 *1497:D *218:14 0.000213393
12 *39:22 *1336:B1 0.000133537
13 *39:22 *1369:A 0.000331192
14 *39:22 *1390:C 0.000633174
15 *39:22 *1415:A 0.000128707
16 *39:22 *1433:A1 0
17 *39:22 *1498:D 0.000150009
18 *39:22 *1503:D 0.00195915
19 *39:22 *1519:RESET_B 0.00122175
20 *39:22 *1529:A 0.000893996
21 *39:22 *47:28 0.00015346
22 *39:22 *104:16 1.78064e-05
23 *39:22 *141:14 0.000317817
24 *39:22 *170:26 0.000224474
25 *39:22 *199:56 0.000303305
26 *1514:D *39:22 0.000108835
*RES
1 *1363:X *39:22 18.5929 
2 *39:22 *229:DIODE 4.0875 
3 *39:22 *1497:D 7.6425 
*END

*D_NET *40 0.0132946
*CONN
*I *1498:D I *D sky130_fd_sc_hd__dfrtp_2
*I *1366:X O *D sky130_fd_sc_hd__buf_1
*CAP
1 *1498:D 0.00344209
2 *1366:X 0.00344209
3 *1498:D *1365:A_N 0
4 *1498:D *1366:A 4.07969e-05
5 *1498:D *1375:B 2.91013e-05
6 *1498:D *1381:A 0.00157992
7 *1498:D *1386:B 0.000143041
8 *1498:D *1414:B 0
9 *1498:D *1426:A 7.20493e-06
10 *1498:D *1433:A2 0.000144588
11 *1498:D *1455:A 0.000499607
12 *1498:D *1503:D 6.13981e-05
13 *1498:D *141:14 0.00243413
14 *1498:D *151:12 7.06865e-05
15 *1498:D *208:61 0.000822786
16 *1498:D *224:14 0.000354805
17 *28:10 *1498:D 7.23533e-05
18 *39:22 *1498:D 0.000150009
*RES
1 *1366:X *1498:D 45.7328 
*END

*D_NET *41 0.0170502
*CONN
*I *1499:D I *D sky130_fd_sc_hd__dfrtp_4
*I *1371:X O *D sky130_fd_sc_hd__buf_1
*CAP
1 *1499:D 0.00514607
2 *1371:X 0.00514607
3 *1499:D *1342:C 1.00941e-05
4 *1499:D *1365:B 7.12809e-05
5 *1499:D *1417:B 0.00022426
6 *1499:D *1434:B 0
7 *1499:D *1519:CLK 8.32311e-06
8 *1499:D *45:24 0.000163288
9 *1499:D *94:16 0
10 *1499:D *134:14 0.000325525
11 *1499:D *134:37 0.000194635
12 *1499:D *146:26 0
13 *1499:D *151:12 0.000664259
14 *1499:D *166:10 0
15 *1499:D *178:18 0.000100181
16 *1499:D *183:20 0.000113298
17 *1499:D *201:16 0.000137075
18 *1509:D *1499:D 0.00381652
19 *20:12 *1499:D 0.000605957
20 *28:10 *1499:D 0.000323336
*RES
1 *1371:X *1499:D 31.7965 
*END

*D_NET *42 0.012249
*CONN
*I *1500:D I *D sky130_fd_sc_hd__dfrtp_2
*I *1374:Y O *D sky130_fd_sc_hd__nor3_1
*CAP
1 *1500:D 0.000497349
2 *1374:Y 0.00309724
3 *42:20 0.00359459
4 *1500:D *54:30 0.00104669
5 *1500:D *183:51 1.0129e-05
6 *1500:D *193:20 0.00120662
7 *1500:D *216:32 2.76983e-05
8 *42:20 *227:DIODE 1.31297e-05
9 *42:20 *1374:B 6.71882e-05
10 *42:20 *1423:B 8.88747e-05
11 *42:20 *1439:B 4.66108e-05
12 *42:20 *1501:RESET_B 0.000333568
13 *42:20 *43:14 5.27102e-05
14 *42:20 *43:24 0.00126068
15 *42:20 *61:24 0.000887088
16 *42:20 *209:39 1.88656e-05
*RES
1 *1374:Y *42:20 46.66 
2 *42:20 *1500:D 19.3838 
*END

*D_NET *43 0.012785
*CONN
*I *1501:D I *D sky130_fd_sc_hd__dfrtp_1
*I *227:DIODE I *D sky130_fd_sc_hd__diode_2
*I *1378:X O *D sky130_fd_sc_hd__buf_1
*CAP
1 *1501:D 0
2 *227:DIODE 9.41529e-05
3 *1378:X 0.00184744
4 *43:24 0.00130707
5 *43:14 0.00306035
6 *227:DIODE *1501:RESET_B 8.43317e-05
7 *227:DIODE *214:38 0.000122651
8 *43:14 *1347:B 0.000596695
9 *43:14 *1374:A 0.000643163
10 *43:14 *1374:B 9.02259e-05
11 *43:14 *1378:A 0.000399518
12 *43:14 *1443:B 1.88602e-05
13 *43:14 *1466:A 8.76406e-05
14 *43:14 *47:108 7.23635e-05
15 *43:14 *49:10 0.000263855
16 *43:14 *179:54 7.74929e-05
17 *43:14 *179:78 6.5291e-05
18 *43:24 *1439:B 0.000528107
19 *43:24 *1501:RESET_B 9.77515e-05
20 *43:24 *1508:CLK 0.000122331
21 *43:24 *1508:RESET_B 8.34323e-05
22 *43:24 *61:24 0.000710126
23 *43:24 *214:38 0.000344599
24 *43:24 *222:10 0.00063593
25 seg[3] *43:14 0
26 *36:10 *43:14 0.000105068
27 *42:20 *227:DIODE 1.31297e-05
28 *42:20 *43:14 5.27102e-05
29 *42:20 *43:24 0.00126068
*RES
1 *1378:X *43:14 41 
2 *43:14 *43:24 33.465 
3 *43:24 *227:DIODE 3.775 
4 *43:24 *1501:D 1.6 
*END

*D_NET *44 0.0124338
*CONN
*I *1502:D I *D sky130_fd_sc_hd__dfrtp_1
*I *1380:Y O *D sky130_fd_sc_hd__a211oi_2
*CAP
1 *1502:D 0.000281855
2 *1380:Y 8.66031e-05
3 *44:12 0.00284921
4 *44:10 0.00265395
5 *1502:D *1331:B 0
6 *1502:D *1384:A 0.000160314
7 *1502:D *1439:B 7.70314e-05
8 *44:10 *1378:A 0.000159387
9 *44:10 *1466:A 0
10 *44:12 *1383:A 0.000119866
11 *44:12 *1446:B 0.000193905
12 *44:12 *1447:A 0.000930655
13 *44:12 *214:14 0.00053701
14 *44:12 *220:89 0.000625304
15 *44:12 *223:29 0.00322774
16 *1513:D *1502:D 4.366e-05
17 *37:24 *44:12 0.000487303
*RES
1 *1380:Y *44:10 7.49 
2 *44:10 *44:12 51.855 
3 *44:12 *1502:D 9.5225 
*END

*D_NET *45 0.0161908
*CONN
*I *1503:D I *D sky130_fd_sc_hd__dfrtp_4
*I *1384:X O *D sky130_fd_sc_hd__buf_1
*CAP
1 *1503:D 0.00215039
2 *1384:X 0.00154925
3 *45:24 0.00369964
4 *1503:D *1414:B 0.000890284
5 *1503:D *1424:A 0
6 *1503:D *50:30 0.00076206
7 *1503:D *141:14 2.35728e-05
8 *1503:D *156:31 0
9 *1503:D *180:125 0.000143774
10 *1503:D *208:61 0.000467433
11 *1503:D *219:14 0
12 *45:24 *1358:C 0.000511231
13 *45:24 *1381:A 5.38986e-06
14 *45:24 *1381:B 0.000386355
15 *45:24 *95:12 0.000159747
16 *45:24 *98:12 0.000282248
17 *45:24 *134:14 0.000484297
18 *45:24 *178:18 4.05358e-05
19 *45:24 *183:18 0
20 *45:24 *183:20 0
21 *45:24 *201:14 0.001001
22 *45:24 *201:16 0.00117146
23 *1498:D *1503:D 6.13981e-05
24 *1499:D *45:24 0.000163288
25 *1509:D *45:24 0.000243014
26 *20:12 *45:24 3.52569e-05
27 *39:22 *1503:D 0.00195915
*RES
1 *1384:X *45:24 47.1375 
2 *45:24 *1503:D 11.7272 
*END

*D_NET *46 0.00346478
*CONN
*I *1504:D I *D sky130_fd_sc_hd__dfrtp_1
*I *1387:Y O *D sky130_fd_sc_hd__nor3_1
*CAP
1 *1504:D 0.000775314
2 *1387:Y 0.000775314
3 *1504:D *1342:B 7.73292e-05
4 *1504:D *1362:A 0.000303574
5 *1504:D *1387:A 0.00089433
6 *1504:D *1504:RESET_B 0.000222516
7 *1504:D *220:12 0.000334058
8 *1504:D *225:12 8.23457e-05
*RES
1 *1387:Y *1504:D 25.23 
*END

*D_NET *47 0.0452466
*CONN
*I *1394:A I *D sky130_fd_sc_hd__nor3_1
*I *1443:A I *D sky130_fd_sc_hd__nor3_1
*I *1440:C1 I *D sky130_fd_sc_hd__a221oi_1
*I *1411:C1 I *D sky130_fd_sc_hd__a211oi_1
*I *1374:A I *D sky130_fd_sc_hd__nor3_1
*I *1433:C1 I *D sky130_fd_sc_hd__a211oi_1
*I *1417:A I *D sky130_fd_sc_hd__nor2_1
*I *1355:B I *D sky130_fd_sc_hd__nor2_1
*I *1387:A I *D sky130_fd_sc_hd__nor3_1
*I *1522:D I *D sky130_fd_sc_hd__dfrtp_4
*I *1354:X O *D sky130_fd_sc_hd__clkbuf_4
*CAP
1 *1394:A 0.000141559
2 *1443:A 0.00034619
3 *1440:C1 1.36534e-05
4 *1411:C1 0.000392453
5 *1374:A 0.000265162
6 *1433:C1 9.9841e-05
7 *1417:A 0.000621799
8 *1355:B 0.000590175
9 *1387:A 0.000446428
10 *1522:D 0.000118309
11 *1354:X 3.94505e-05
12 *47:110 0.000478095
13 *47:108 0.000693387
14 *47:95 0.00162411
15 *47:91 0.0035223
16 *47:47 0.00108191
17 *47:45 0.00193725
18 *47:28 0.0025968
19 *47:26 0.00193262
20 *47:12 0.00296087
21 *1355:B *1436:B 0.000565532
22 *1355:B *183:18 0.000377138
23 *1387:A *1362:A 0.00010179
24 *1387:A *1393:B 0.00105478
25 *1387:A *194:20 0.000221339
26 *1387:A *200:97 0.000357137
27 *1394:A *84:14 4.36573e-06
28 *1394:A *133:10 0
29 *1394:A *221:52 6.24643e-05
30 *1411:C1 *1411:A1 1.61831e-05
31 *1411:C1 *1411:A2 4.82919e-05
32 *1411:C1 *1411:B1 4.82863e-05
33 *1411:C1 *1423:A 0
34 *1411:C1 *1487:A 0
35 *1411:C1 *147:18 4.47772e-05
36 *1411:C1 *207:110 0.000377314
37 *1417:A *194:20 0.000445824
38 *1417:A *196:22 0.000240659
39 *1417:A *209:12 0.000451564
40 *1433:C1 *70:34 0.000565929
41 *1433:C1 *163:12 0.000565929
42 *1440:C1 *1331:A 4.66108e-05
43 *1440:C1 *1440:B2 4.66108e-05
44 *1443:A *1443:C 0.000232111
45 *1443:A *1489:A 0.000599797
46 *1443:A *74:20 0.000305256
47 *1522:D *1335:A 2.69153e-05
48 *1522:D *1336:B1 0.00025614
49 *1522:D *1395:B 0.000254718
50 *47:12 *1523:RESET_B 4.77769e-05
51 *47:12 *76:50 4.45567e-05
52 *47:12 *181:92 1.91597e-05
53 *47:26 *1365:C 0.000278844
54 *47:26 *1516:RESET_B 5.98468e-05
55 *47:26 *1523:RESET_B 0.000363749
56 *47:26 *153:12 0
57 *47:26 *206:16 6.10279e-05
58 *47:26 *208:108 4.74658e-05
59 *47:26 *211:10 0.000268176
60 *47:28 *1336:B1 0.00102903
61 *47:28 *1395:A 9.73788e-05
62 *47:28 *1395:B 4.87939e-05
63 *47:28 *153:12 0
64 *47:28 *170:14 0.000805638
65 *47:28 *170:26 0.000172719
66 *47:28 *187:22 0
67 *47:28 *208:108 0.000273674
68 *47:28 *214:38 7.23602e-05
69 *47:45 *49:16 0.000190717
70 *47:45 *134:73 1.43622e-05
71 *47:47 *1393:B 0.000123194
72 *47:47 *194:20 0.000131525
73 *47:91 *1365:C 0.00277109
74 *47:91 *146:26 0
75 *47:95 *1421:B1 0.000208491
76 *47:95 *1422:D 0.000136877
77 *47:95 *84:14 0.000457563
78 *47:95 *133:10 0
79 *47:95 *206:69 0.000206817
80 *47:95 *207:110 0.000638784
81 *47:95 *208:69 1.73877e-05
82 *47:95 *209:72 0.000814038
83 *47:95 *221:52 0.000405185
84 *47:108 *207:110 0.000813452
85 *47:110 *207:110 0.000218904
86 *1504:D *1387:A 0.00089433
87 *1505:D *1443:A 0.00079128
88 *1514:D *47:28 0.00157317
89 *1518:D *1411:C1 4.92861e-05
90 *1518:D *47:95 0.000342254
91 *1518:D *47:108 0.000806019
92 *1518:D *47:110 0.00021229
93 *20:8 *1355:B 0.000128851
94 *22:20 *47:12 1.79536e-05
95 *32:16 *47:45 0.00150376
96 *39:22 *47:28 0.00015346
97 *43:14 *1374:A 0.000643163
98 *43:14 *47:108 7.23635e-05
*RES
1 *1354:X *47:12 5.1275 
2 *47:12 *47:26 13.5484 
3 *47:26 *47:28 33.255 
4 *47:28 *1522:D 7.215 
5 *47:28 *47:45 20.32 
6 *47:45 *47:47 1.635 
7 *47:47 *1387:A 20.28 
8 *47:47 *1355:B 16.125 
9 *47:45 *1417:A 16.515 
10 *47:26 *1433:C1 8.88 
11 *47:12 *47:91 4.908 
12 *47:91 *47:95 35.1275 
13 *47:95 *1374:A 7.57 
14 *47:95 *47:108 12.59 
15 *47:108 *47:110 2.655 
16 *47:110 *1411:C1 11.655 
17 *47:110 *1440:C1 4.05 
18 *47:108 *1443:A 15.435 
19 *47:91 *1394:A 6.0675 
*END

*D_NET *48 0.0140216
*CONN
*I *1495:RESET_B I *D sky130_fd_sc_hd__dfrtp_4
*I *1461:Y O *D sky130_fd_sc_hd__inv_2
*CAP
1 *1495:RESET_B 0.00250473
2 *1461:Y 0.000743874
3 *48:12 0.00324861
4 *1495:RESET_B *1362:A 2.10433e-05
5 *1495:RESET_B *1365:C 0
6 *1495:RESET_B *1372:B1 0.000830558
7 *1495:RESET_B *1400:B 0.000534369
8 *1495:RESET_B *1415:A 4.52591e-05
9 *1495:RESET_B *1427:B 0.000133528
10 *1495:RESET_B *1433:A1 0.000233028
11 *1495:RESET_B *70:34 0.000482812
12 *1495:RESET_B *88:66 0.000264213
13 *1495:RESET_B *106:29 8.66609e-05
14 *1495:RESET_B *179:131 0.000440871
15 *1495:RESET_B *180:125 1.7635e-05
16 *1495:RESET_B *188:59 5.80636e-05
17 *1495:RESET_B *188:65 0.000532093
18 *1495:RESET_B *199:12 7.19906e-05
19 *1495:RESET_B *203:33 0.000106876
20 *1495:RESET_B *204:24 0.000336323
21 *1495:RESET_B *207:16 0
22 *1495:RESET_B *221:10 0.000461041
23 *48:12 *1372:B1 0.000551899
24 *48:12 *1433:A1 0.000105469
25 *48:12 *1449:A1 0.000131773
26 *48:12 *1483:A 0.000261501
27 *48:12 *68:18 0.000139886
28 *48:12 *88:66 4.08275e-05
29 *48:12 *95:68 0.000269521
30 *48:12 *159:26 0.0002563
31 *1507:D *1495:RESET_B 0.00111081
*RES
1 *1461:Y *48:12 20.8425 
2 *48:12 *1495:RESET_B 44.3975 
*END

*D_NET *49 0.0146747
*CONN
*I *1496:RESET_B I *D sky130_fd_sc_hd__dfrtp_4
*I *1462:Y O *D sky130_fd_sc_hd__inv_2
*CAP
1 *1496:RESET_B 0.000820252
2 *1462:Y 7.8007e-05
3 *49:16 0.00367937
4 *49:10 0.00293713
5 *1496:RESET_B *1348:D 0.00196874
6 *1496:RESET_B *1496:CLK 0.000880045
7 *1496:RESET_B *183:83 0.000148648
8 *49:10 *1466:A 5.68457e-05
9 *49:10 *193:28 0.000157543
10 *49:16 *1399:A2 0.000110167
11 *49:16 *1402:A 0.000836224
12 *49:16 *1420:B1 4.67484e-05
13 *49:16 *1493:A 6.81928e-05
14 *49:16 *1525:RESET_B 3.94628e-05
15 *49:16 *1538:A 4.66108e-05
16 *49:16 *88:66 0.000613133
17 *49:16 *115:22 0.000154986
18 *49:16 *134:73 0.000225285
19 *49:16 *156:31 8.35118e-05
20 *49:16 *165:26 0.000305046
21 *49:16 *181:58 0.000519005
22 *49:16 *181:124 0.000155608
23 *49:16 *183:83 1.84465e-05
24 *49:16 *189:28 0.00027108
25 *43:14 *49:10 0.000263855
26 *47:45 *49:16 0.000190717
*RES
1 *1462:Y *49:10 8.765 
2 *49:10 *49:16 49.9475 
3 *49:16 *1496:RESET_B 26.3975 
*END

*D_NET *50 0.0109647
*CONN
*I *1497:RESET_B I *D sky130_fd_sc_hd__dfrtp_4
*I *1463:Y O *D sky130_fd_sc_hd__inv_2
*CAP
1 *1497:RESET_B 0.00116559
2 *1463:Y 0.00162463
3 *50:30 0.00279022
4 *1497:RESET_B *1497:CLK 0.000926812
5 *1497:RESET_B *218:14 6.78123e-05
6 *1497:RESET_B *218:72 0.000198682
7 *50:30 *1328:B 4.66108e-05
8 *50:30 *1333:B1 2.73058e-05
9 *50:30 *1339:B1 0.000118081
10 *50:30 *51:8 7.09921e-05
11 *50:30 *84:14 0.000141874
12 *50:30 *84:20 0.000752942
13 *50:30 *142:28 0.000268745
14 *50:30 *156:31 4.81484e-06
15 *50:30 *187:111 0.000359519
16 *50:30 *188:65 4.10051e-05
17 *50:30 *205:10 0.000134509
18 *50:30 *208:61 0.00075175
19 *50:30 *218:72 9.47017e-05
20 *50:30 *226:27 3.86814e-05
21 *1497:D *1497:RESET_B 6.00027e-05
22 *1503:D *50:30 0.00076206
23 *1514:D *50:30 0.000517399
*RES
1 *1463:Y *50:30 39.3883 
2 *50:30 *1497:RESET_B 18.3375 
*END

*D_NET *51 0.00888974
*CONN
*I *1498:RESET_B I *D sky130_fd_sc_hd__dfrtp_2
*I *1464:Y O *D sky130_fd_sc_hd__inv_2
*CAP
1 *1498:RESET_B 3.41944e-05
2 *1464:Y 0
3 *51:8 0.00215468
4 *51:6 0.00212049
5 *51:8 *1331:A 2.90456e-05
6 *51:8 *1382:B 0.000216596
7 *51:8 *1392:B1 0
8 *51:8 *1414:B 1.88602e-05
9 *51:8 *1440:B1 0.000447712
10 *51:8 *1448:A2 0.000775718
11 *51:8 *1452:D1 0.00148227
12 *51:8 *1527:A 0.000117824
13 *51:8 *1540:A 0
14 *51:8 *93:14 0.000392224
15 *51:8 *95:98 0
16 *51:8 *104:16 0
17 *51:8 *115:101 0.000102637
18 *51:8 *147:76 0.000130354
19 *51:8 *170:64 0.000131525
20 *51:8 *170:76 0.000130071
21 *51:8 *180:44 0.000308102
22 *51:8 *205:10 0.000226445
23 *50:30 *51:8 7.09921e-05
*RES
1 *1464:Y *51:6 3.6 
2 *51:6 *51:8 50.085 
3 *51:8 *1498:RESET_B 2.45 
*END

*D_NET *52 0.0152454
*CONN
*I *1499:RESET_B I *D sky130_fd_sc_hd__dfrtp_4
*I *1465:Y O *D sky130_fd_sc_hd__inv_2
*CAP
1 *1499:RESET_B 0.000635628
2 *1465:Y 0.000440527
3 *52:32 0.00291862
4 *52:16 0.00272351
5 *1499:RESET_B *1409:B 1.77199e-05
6 *1499:RESET_B *200:63 0.00112525
7 *1499:RESET_B *200:65 8.49205e-05
8 *52:16 *1401:A 0.000176859
9 *52:16 *1401:C 0.000916242
10 *52:16 *1402:A 0.000455148
11 *52:16 *1423:A 2.74961e-05
12 *52:16 *1494:A 0.00136515
13 *52:16 *118:10 4.96327e-05
14 *52:32 *1336:A2 7.43862e-05
15 *52:32 *1336:B1 7.27194e-05
16 *52:32 *1346:D 0.000423121
17 *52:32 *1392:B1 0.00247657
18 *52:32 *1449:A2 0.000109021
19 *52:32 *1449:C1 0.000414079
20 *52:32 *1494:A 1.46744e-05
21 *52:32 *103:71 2.74961e-05
22 *52:32 *200:63 0.00069661
*RES
1 *1465:Y *52:16 22.655 
2 *52:16 *52:32 43.85 
3 *52:32 *1499:RESET_B 11.4375 
*END

*D_NET *53 0.01141
*CONN
*I *1500:RESET_B I *D sky130_fd_sc_hd__dfrtp_2
*I *1466:Y O *D sky130_fd_sc_hd__inv_2
*CAP
1 *1500:RESET_B 0.000539014
2 *1466:Y 0.000152762
3 *53:18 0.00281284
4 *53:10 0.00242659
5 *1500:RESET_B *184:97 0.000224308
6 *1500:RESET_B *216:32 0.0010273
7 *53:10 *1421:A1 0.000296088
8 *53:10 *192:16 0.000120321
9 *53:10 *198:18 0.000515099
10 *53:18 *1339:A1 0.000157401
11 *53:18 *1339:A2 8.57024e-05
12 *53:18 *1339:B1 0.000269203
13 *53:18 *1375:A 0.000112754
14 *53:18 *1375:B 0.00113189
15 *53:18 *1377:B 0.000336068
16 *53:18 *1381:A 2.67503e-05
17 *53:18 *1418:A 1.03323e-05
18 *53:18 *80:16 1.19928e-05
19 *53:18 *103:24 0.000155367
20 *53:18 *208:69 0.000225734
21 *53:18 *216:20 0.000643422
22 *53:18 *224:14 1.80164e-05
23 *53:18 *226:16 0.000111087
*RES
1 *1466:Y *53:10 11.57 
2 *53:10 *53:18 44.815 
3 *53:18 *1500:RESET_B 10.0575 
*END

*D_NET *54 0.0153093
*CONN
*I *1501:RESET_B I *D sky130_fd_sc_hd__dfrtp_1
*I *1467:Y O *D sky130_fd_sc_hd__inv_2
*CAP
1 *1501:RESET_B 9.83615e-05
2 *1467:Y 0.00142292
3 *54:30 0.00220271
4 *54:16 0.00352726
5 *54:16 *1468:A 6.07328e-05
6 *54:16 *1511:CLK 0.000192185
7 *54:16 *1511:RESET_B 0.000117093
8 *54:16 *118:20 0.00186705
9 *54:16 *186:47 3.79962e-05
10 *54:16 *192:6 0.00115487
11 *54:16 *206:14 0.000268165
12 *54:30 *1330:B 0
13 *54:30 *1340:A 0.000344053
14 *54:30 *1371:A 5.85587e-05
15 *54:30 *1390:B 6.70983e-05
16 *54:30 *1414:B 0.000837183
17 *54:30 *1433:A2 0
18 *54:30 *1451:C 0.00012398
19 *54:30 *1492:A 7.94887e-05
20 *54:30 *1507:RESET_B 0
21 *54:30 *55:10 0
22 *54:30 *70:34 7.11437e-05
23 *54:30 *80:16 0
24 *54:30 *86:10 0
25 *54:30 *88:14 0.000535952
26 *54:30 *109:30 6.43153e-05
27 *54:30 *183:51 3.09233e-05
28 *54:30 *183:68 0.000312731
29 *54:30 *184:82 6.90254e-05
30 *227:DIODE *1501:RESET_B 8.43317e-05
31 *1500:D *54:30 0.00104669
32 *1511:D *54:16 0.000203178
33 *42:20 *1501:RESET_B 0.000333568
34 *43:24 *1501:RESET_B 9.77515e-05
*RES
1 *1467:Y *54:16 37.465 
2 *54:16 *54:30 49.78 
3 *54:30 *1501:RESET_B 5.1575 
*END

*D_NET *55 0.0119405
*CONN
*I *1502:RESET_B I *D sky130_fd_sc_hd__dfrtp_1
*I *1468:Y O *D sky130_fd_sc_hd__inv_2
*CAP
1 *1502:RESET_B 0.000374688
2 *1468:Y 0.00246704
3 *55:10 0.00284173
4 *1502:RESET_B *1439:B 2.94736e-05
5 *1502:RESET_B *105:66 0.000194143
6 *1502:RESET_B *105:107 0.000423099
7 *1502:RESET_B *175:34 0.000274653
8 *1502:RESET_B *216:48 0.00058806
9 *55:10 *1371:A 7.10077e-05
10 *55:10 *1441:B1 2.11536e-05
11 *55:10 *1451:C 0.000713094
12 *55:10 *1509:CLK 0.000431803
13 *55:10 *1509:RESET_B 0.000965404
14 *55:10 *1511:CLK 5.83121e-06
15 *55:10 *1527:A 0.000258101
16 *55:10 *94:16 0
17 *55:10 *175:34 0.000661798
18 *55:10 *175:47 0.000345679
19 *55:10 *180:80 0.000277861
20 *55:10 *184:27 5.63822e-05
21 *55:10 *184:38 0.000301695
22 *55:10 *184:59 3.67561e-05
23 *55:10 *213:33 0.000276887
24 *1509:D *55:10 0.000324175
25 *54:30 *55:10 0
*RES
1 *1468:Y *55:10 49.815 
2 *55:10 *1502:RESET_B 17.1675 
*END

*D_NET *56 0.00393125
*CONN
*I *1503:RESET_B I *D sky130_fd_sc_hd__dfrtp_4
*I *1469:Y O *D sky130_fd_sc_hd__inv_2
*CAP
1 *1503:RESET_B 0.00115132
2 *1469:Y 0.00115132
3 *1503:RESET_B *1327:A 8.97006e-07
4 *1503:RESET_B *1386:B 0
5 *1503:RESET_B *1524:RESET_B 0.000288547
6 *1503:RESET_B *1532:A 0.000337715
7 *1503:RESET_B *69:8 0.000577319
8 *1503:RESET_B *139:14 0.00031236
9 *1503:RESET_B *157:14 0.00011178
10 *1503:RESET_B *207:26 0
*RES
1 *1469:Y *1503:RESET_B 26.54 
*END

*D_NET *57 0.0113198
*CONN
*I *1504:RESET_B I *D sky130_fd_sc_hd__dfrtp_1
*I *1470:Y O *D sky130_fd_sc_hd__inv_2
*CAP
1 *1504:RESET_B 0.000694922
2 *1470:Y 0.0016316
3 *57:16 0.00232652
4 *1504:RESET_B *167:18 0.0011518
5 *1504:RESET_B *225:12 0.00145792
6 *57:16 *1336:B1 3.95359e-05
7 *57:16 *1347:A_N 8.23457e-05
8 *57:16 *1347:B 4.45799e-05
9 *57:16 *1347:D 0.000163466
10 *57:16 *1385:B1 7.20926e-05
11 *57:16 *1391:A 0.000516535
12 *57:16 *1395:A 4.77807e-05
13 *57:16 *1395:B 8.7152e-06
14 *57:16 *1423:B 0.000118081
15 *57:16 *1429:B 2.15454e-05
16 *57:16 *1539:A 0.00107249
17 *57:16 *97:67 7.95969e-05
18 *57:16 *194:24 6.4843e-05
19 *57:16 *225:29 0.00143781
20 *1504:D *1504:RESET_B 0.000222516
21 *1521:D *57:16 6.51336e-05
*RES
1 *1470:Y *57:16 38.42 
2 *57:16 *1504:RESET_B 18.6825 
*END

*D_NET *58 0.00615729
*CONN
*I *1505:RESET_B I *D sky130_fd_sc_hd__dfrtp_4
*I *1472:Y O *D sky130_fd_sc_hd__inv_2
*CAP
1 *1505:RESET_B 0.00168809
2 *1472:Y 0.00168809
3 *1505:RESET_B *1380:C1 0.000116165
4 *1505:RESET_B *170:76 0.000338226
5 *1505:RESET_B *198:18 0.000183487
6 *1505:RESET_B *214:14 0.00214323
7 *1505:D *1505:RESET_B 0
*RES
1 *1472:Y *1505:RESET_B 30.92 
*END

*D_NET *59 0.00193292
*CONN
*I *1506:RESET_B I *D sky130_fd_sc_hd__dfrtp_2
*I *1473:Y O *D sky130_fd_sc_hd__inv_2
*CAP
1 *1506:RESET_B 0.000329759
2 *1473:Y 0.000329759
3 *1506:RESET_B *1441:A1 0.000487399
4 *1506:RESET_B *1441:A2 4.66108e-05
5 *1506:RESET_B *1506:CLK 3.50118e-05
6 *1506:D *1506:RESET_B 0.000704383
*RES
1 *1473:Y *1506:RESET_B 9.9325 
*END

*D_NET *60 0.00696433
*CONN
*I *1507:RESET_B I *D sky130_fd_sc_hd__dfrtp_4
*I *1474:Y O *D sky130_fd_sc_hd__inv_2
*CAP
1 *1507:RESET_B 0.00165504
2 *1474:Y 0.00165504
3 *1507:RESET_B *1439:B 0.000266164
4 *1507:RESET_B *1441:A1 0.000510888
5 *1507:RESET_B *1443:B 0
6 *1507:RESET_B *1454:A1 0
7 *1507:RESET_B *1473:A 0
8 *1507:RESET_B *1474:A 0.000724448
9 *1507:RESET_B *86:10 0.000675625
10 *1507:RESET_B *130:12 0.000528093
11 *1507:RESET_B *177:18 0
12 *1507:RESET_B *193:20 0
13 *1507:RESET_B *202:57 1.759e-05
14 *1507:RESET_B *208:16 0.000308812
15 *1506:D *1507:RESET_B 0.000622625
16 *54:30 *1507:RESET_B 0
*RES
1 *1474:Y *1507:RESET_B 31.1024 
*END

*D_NET *61 0.00879777
*CONN
*I *1508:RESET_B I *D sky130_fd_sc_hd__dfrtp_2
*I *1475:Y O *D sky130_fd_sc_hd__inv_2
*CAP
1 *1508:RESET_B 9.03746e-05
2 *1475:Y 0.00190624
3 *61:24 0.00199662
4 *61:24 *1362:A 0.000123533
5 *61:24 *1406:C 1.70906e-05
6 *61:24 *1425:C 7.06865e-05
7 *61:24 *1426:A 0.001027
8 *61:24 *1449:A1 0
9 *61:24 *1458:A 0.000122817
10 *61:24 *1461:A 0.000315977
11 *61:24 *1475:A 0.000163608
12 *61:24 *1508:CLK 7.15674e-05
13 *61:24 *95:68 4.9968e-05
14 *61:24 *174:36 0
15 *61:24 *181:31 0
16 *61:24 *201:45 0.000111308
17 *61:24 *206:32 0.000442801
18 *61:24 *226:16 0.000485881
19 *1496:D *61:24 0.000121659
20 *42:20 *61:24 0.000887088
21 *43:24 *1508:RESET_B 8.34323e-05
22 *43:24 *61:24 0.000710126
*RES
1 *1475:Y *61:24 48.995 
2 *61:24 *1508:RESET_B 1.4325 
*END

*D_NET *62 0.00875685
*CONN
*I *1509:RESET_B I *D sky130_fd_sc_hd__dfrtp_2
*I *1476:Y O *D sky130_fd_sc_hd__inv_2
*CAP
1 *1509:RESET_B 0.00142395
2 *1476:Y 0.00142395
3 *1509:RESET_B *1341:A2 8.9706e-05
4 *1509:RESET_B *1345:D 3.86529e-05
5 *1509:RESET_B *1509:CLK 9.17602e-05
6 *1509:RESET_B *89:16 0.000966038
7 *1509:RESET_B *94:16 0.000159391
8 *1509:RESET_B *105:130 0.00178647
9 *1509:RESET_B *151:12 0.00102709
10 *1509:RESET_B *184:38 0
11 *1509:RESET_B *184:59 0
12 *1509:RESET_B *207:36 0.000618077
13 *1509:RESET_B *213:33 0
14 *1509:D *1509:RESET_B 0.000166349
15 *55:10 *1509:RESET_B 0.000965404
*RES
1 *1476:Y *1509:RESET_B 49.2125 
*END

*D_NET *63 0.00355698
*CONN
*I *1510:RESET_B I *D sky130_fd_sc_hd__dfrtp_2
*I *1477:Y O *D sky130_fd_sc_hd__inv_2
*CAP
1 *1510:RESET_B 0.000882885
2 *1477:Y 0.000882885
3 *1510:RESET_B *1364:B1 0.000162018
4 *1510:RESET_B *1386:D 0.000322356
5 *1510:RESET_B *1404:A 0.00026617
6 *1510:RESET_B *1404:B 6.15576e-06
7 *1510:RESET_B *1435:B 0.000168222
8 *1510:RESET_B *107:38 6.9117e-05
9 *1510:RESET_B *142:28 1.19928e-05
10 *1510:RESET_B *165:26 0
11 *1510:RESET_B *180:156 0.00019898
12 *1510:RESET_B *204:53 0.00018038
13 *1510:RESET_B *205:50 0.000156091
14 *1510:RESET_B *210:91 5.92535e-05
15 *1510:D *1510:RESET_B 7.07191e-05
16 *1511:D *1510:RESET_B 0.000119756
*RES
1 *1477:Y *1510:RESET_B 24.0575 
*END

*D_NET *64 0.00291785
*CONN
*I *1511:RESET_B I *D sky130_fd_sc_hd__dfrtp_4
*I *1478:Y O *D sky130_fd_sc_hd__inv_2
*CAP
1 *1511:RESET_B 0.00107049
2 *1478:Y 0.00107049
3 *1511:RESET_B *1455:B 0.000192411
4 *1511:RESET_B *1468:A 5.59047e-05
5 *1511:RESET_B *1479:A 0
6 *1511:RESET_B *1511:CLK 2.53494e-05
7 *1511:RESET_B *1512:RESET_B 0
8 *1511:RESET_B *186:34 0
9 *1511:RESET_B *186:47 0
10 *1511:RESET_B *205:50 8.33066e-06
11 *1511:RESET_B *213:33 0.000158543
12 *22:20 *1511:RESET_B 0.000219235
13 *54:16 *1511:RESET_B 0.000117093
*RES
1 *1478:Y *1511:RESET_B 22.6025 
*END

*D_NET *65 0.00173113
*CONN
*I *1512:RESET_B I *D sky130_fd_sc_hd__dfrtp_4
*I *1479:Y O *D sky130_fd_sc_hd__inv_2
*CAP
1 *1512:RESET_B 0.000396097
2 *1479:Y 0.000396097
3 *1512:RESET_B *1455:B 4.54998e-05
4 *1512:RESET_B *1479:A 0.000528284
5 *1512:RESET_B *134:47 0.000158536
6 *1512:RESET_B *177:18 8.12516e-05
7 *1512:RESET_B *205:50 0
8 *1512:RESET_B *213:33 8.23457e-05
9 *1511:RESET_B *1512:RESET_B 0
10 *22:20 *1512:RESET_B 4.30228e-05
*RES
1 *1479:Y *1512:RESET_B 14.5625 
*END

*D_NET *66 0.00880487
*CONN
*I *1513:RESET_B I *D sky130_fd_sc_hd__dfrtp_4
*I *1480:Y O *D sky130_fd_sc_hd__inv_2
*CAP
1 *1513:RESET_B 0.00264062
2 *1480:Y 0.00264062
3 *1513:RESET_B *1457:B 0.000187835
4 *1513:RESET_B *1524:CLK 0.000118081
5 *1513:RESET_B *1524:D 1.19928e-05
6 *1513:RESET_B *76:32 7.03276e-05
7 *1513:RESET_B *107:46 0.00138702
8 *1513:RESET_B *165:26 1.7211e-05
9 *1513:RESET_B *170:76 0.000780874
10 *1513:RESET_B *188:8 3.7445e-05
11 *1513:RESET_B *188:65 5.92381e-05
12 *1513:RESET_B *200:30 0.000133453
13 *1513:RESET_B *203:33 0.000262064
14 *1513:RESET_B *206:24 8.23457e-05
15 *1513:RESET_B *208:41 0.000372585
16 *1513:RESET_B *224:59 3.1562e-06
*RES
1 *1480:Y *1513:RESET_B 45.9425 
*END

*D_NET *67 0.00831704
*CONN
*I *1514:RESET_B I *D sky130_fd_sc_hd__dfrtp_4
*I *1481:Y O *D sky130_fd_sc_hd__inv_2
*CAP
1 *1514:RESET_B 0.00210213
2 *1481:Y 0.00210213
3 *1514:RESET_B *1399:A1 1.91597e-05
4 *1514:RESET_B *1399:A2 0.000250236
5 *1514:RESET_B *1455:A 0.000536879
6 *1514:RESET_B *103:71 0.000263671
7 *1514:RESET_B *149:14 0.0009556
8 *1514:RESET_B *179:110 0
9 *1514:RESET_B *180:31 2.25592e-05
10 *1514:RESET_B *191:41 9.28013e-05
11 *1514:RESET_B *209:39 8.04797e-05
12 *1514:RESET_B *220:89 7.55708e-05
13 *1514:RESET_B *222:18 0.00165386
14 *1514:D *1514:RESET_B 0.000161961
*RES
1 *1481:Y *1514:RESET_B 41.8475 
*END

*D_NET *68 0.0119213
*CONN
*I *1515:RESET_B I *D sky130_fd_sc_hd__dfrtp_1
*I *1483:Y O *D sky130_fd_sc_hd__inv_2
*CAP
1 *1515:RESET_B 0.000577074
2 *1483:Y 0.00161866
3 *68:18 0.00219573
4 *1515:RESET_B *1492:A 0.000385017
5 *1515:RESET_B *1523:RESET_B 0.000582439
6 *1515:RESET_B *188:59 0
7 *1515:RESET_B *208:108 0.000701702
8 *1515:RESET_B *211:10 0.000222766
9 *68:18 *1346:C 0.000794063
10 *68:18 *1427:A 0.00015693
11 *68:18 *1483:A 0.000318264
12 *68:18 *88:66 0.000813326
13 *68:18 *159:26 0.00160927
14 *68:18 *190:58 1.66913e-05
15 *68:18 *201:45 4.99619e-05
16 *68:18 *202:57 0
17 *68:18 *203:33 0.000358109
18 *68:18 *208:108 0.000130981
19 *68:18 *211:10 0.000180079
20 *68:18 *225:29 0.000170881
21 *1521:D *68:18 0.000899477
22 *48:12 *68:18 0.000139886
*RES
1 *1483:Y *68:18 49.2525 
2 *68:18 *1515:RESET_B 18.065 
*END

*D_NET *69 0.00997412
*CONN
*I *1516:RESET_B I *D sky130_fd_sc_hd__dfrtp_2
*I *1484:Y O *D sky130_fd_sc_hd__inv_2
*CAP
1 *1516:RESET_B 0.000905635
2 *1484:Y 0.00107405
3 *69:8 0.00197968
4 *1516:RESET_B *1354:A 0.000322861
5 *1516:RESET_B *1426:A 0.00035372
6 *1516:RESET_B *1455:B 6.86726e-05
7 *1516:RESET_B *1507:CLK 0.000685354
8 *1516:RESET_B *106:29 8.59278e-05
9 *1516:RESET_B *181:58 0.000529308
10 *1516:RESET_B *186:23 7.35126e-05
11 *1516:RESET_B *186:34 0.000153822
12 *1516:RESET_B *186:47 6.00003e-05
13 *1516:RESET_B *189:95 0.00044367
14 *1516:RESET_B *206:14 4.43871e-06
15 *1516:RESET_B *206:16 0.000480249
16 *1516:RESET_B *206:24 0.000175752
17 *69:8 *147:76 0.0019403
18 *1503:RESET_B *69:8 0.000577319
19 *47:26 *1516:RESET_B 5.98468e-05
*RES
1 *1484:Y *69:8 25.785 
2 *69:8 *1516:RESET_B 28.625 
*END

*D_NET *70 0.00738909
*CONN
*I *1517:RESET_B I *D sky130_fd_sc_hd__dfrtp_1
*I *1485:Y O *D sky130_fd_sc_hd__inv_2
*CAP
1 *1517:RESET_B 0.000149256
2 *1485:Y 0.00104697
3 *70:34 0.00119623
4 *1517:RESET_B *1340:A 9.84609e-06
5 *1517:RESET_B *1434:A 0.000116492
6 *1517:RESET_B *1517:CLK 1.16505e-05
7 *70:34 *1340:A 0.000231815
8 *70:34 *1365:A_N 0
9 *70:34 *1433:A1 5.03635e-05
10 *70:34 *1434:B 1.79536e-05
11 *70:34 *1451:C 3.90934e-05
12 *70:34 *1459:B1_N 0.000181361
13 *70:34 *77:12 0.00113624
14 *70:34 *87:51 0.000108695
15 *70:34 *163:12 0.00017661
16 *70:34 *181:75 0.000288389
17 *70:34 *188:59 6.9789e-05
18 *70:34 *199:56 0.00044584
19 *70:34 *203:33 0.000390753
20 *70:34 *210:60 0.000447515
21 *70:34 *211:10 0.000154341
22 *1433:C1 *70:34 0.000565929
23 *1495:RESET_B *70:34 0.000482812
24 *54:30 *70:34 7.11437e-05
*RES
1 *1485:Y *70:34 49.625 
2 *70:34 *1517:RESET_B 2.4675 
*END

*D_NET *71 0.0087413
*CONN
*I *1518:RESET_B I *D sky130_fd_sc_hd__dfrtp_2
*I *1486:Y O *D sky130_fd_sc_hd__inv_2
*CAP
1 *1518:RESET_B 0.00284228
2 *1486:Y 0.00284228
3 *1518:RESET_B *1359:A 0.000601907
4 *1518:RESET_B *165:51 0.00149927
5 *1518:RESET_B *181:151 0.000109165
6 *1518:RESET_B *193:22 0.000390999
7 *1505:D *1518:RESET_B 0.00033731
8 *1518:D *1518:RESET_B 0.000118081
*RES
1 *1486:Y *1518:RESET_B 45.6425 
*END

*D_NET *72 0.0115136
*CONN
*I *1519:RESET_B I *D sky130_fd_sc_hd__dfrtp_4
*I *1487:Y O *D sky130_fd_sc_hd__inv_2
*CAP
1 *1519:RESET_B 0.00420121
2 *1487:Y 0.00420121
3 *1519:RESET_B *1342:C 0.000192149
4 *1519:RESET_B *1363:A 0.000165928
5 *1519:RESET_B *1390:C 0.000476266
6 *1519:RESET_B *1445:B 0.000113901
7 *1519:RESET_B *1458:A 0.000125424
8 *1519:RESET_B *1464:A 0.000334385
9 *1519:RESET_B *100:14 1.79483e-05
10 *1519:RESET_B *104:16 0.000341642
11 *1519:RESET_B *215:8 7.9642e-06
12 *1496:D *1519:RESET_B 0.000113818
13 *39:22 *1519:RESET_B 0.00122175
*RES
1 *1487:Y *1519:RESET_B 21.2108 
*END

*D_NET *73 0.00229624
*CONN
*I *1520:RESET_B I *D sky130_fd_sc_hd__dfrtp_4
*I *1488:Y O *D sky130_fd_sc_hd__inv_2
*CAP
1 *1520:RESET_B 0.000581438
2 *1488:Y 0.000581438
3 *1520:RESET_B *1327:A 0
4 *1520:RESET_B *1380:B1 0.00113336
5 *1520:RESET_B *192:16 0
*RES
1 *1488:Y *1520:RESET_B 18.965 
*END

*D_NET *74 0.0119508
*CONN
*I *1521:RESET_B I *D sky130_fd_sc_hd__dfrtp_1
*I *1489:Y O *D sky130_fd_sc_hd__inv_2
*CAP
1 *1521:RESET_B 0.000811304
2 *1489:Y 0.0017517
3 *74:20 0.00256301
4 *1521:RESET_B *1383:C 0.000622992
5 *1521:RESET_B *179:10 0.000118081
6 *1521:RESET_B *179:110 0.000476529
7 *1521:RESET_B *191:30 0.000706837
8 *1521:RESET_B *191:41 0.000703072
9 *74:20 *1376:B 2.49909e-05
10 *74:20 *1380:C1 0.000837678
11 *74:20 *1489:A 0.000167164
12 *74:20 *1518:CLK 0.000198945
13 *74:20 *122:10 0.000969655
14 *74:20 *170:76 0.00117967
15 *74:20 *198:18 0.00018867
16 *1443:A *74:20 0.000305256
17 *1518:D *74:20 0.000325221
*RES
1 *1489:Y *74:20 44.225 
2 *74:20 *1521:RESET_B 19.0275 
*END

*D_NET *75 0.00127979
*CONN
*I *1522:RESET_B I *D sky130_fd_sc_hd__dfrtp_4
*I *1490:Y O *D sky130_fd_sc_hd__inv_2
*CAP
1 *1522:RESET_B 0.00031263
2 *1490:Y 0.00031263
3 *1522:RESET_B *1335:A 0.000436944
4 *1522:RESET_B *1525:D 8.64421e-05
5 *1522:RESET_B *181:31 0.000131144
*RES
1 *1490:Y *1522:RESET_B 7.1725 
*END

*D_NET *76 0.0177861
*CONN
*I *1523:RESET_B I *D sky130_fd_sc_hd__dfrtp_4
*I *1491:Y O *D sky130_fd_sc_hd__inv_2
*CAP
1 *1523:RESET_B 0.00135133
2 *1491:Y 0.00132244
3 *76:50 0.00392455
4 *76:32 0.00389566
5 *1523:RESET_B *1492:A 0.000653564
6 *1523:RESET_B *1523:D 0.00048733
7 *1523:RESET_B *181:92 7.32625e-05
8 *1523:RESET_B *211:10 0.000235038
9 *76:32 *1347:A_N 0.000638393
10 *76:32 *1377:B 8.35157e-05
11 *76:32 *1539:A 4.77719e-05
12 *76:32 *133:10 0
13 *76:32 *165:26 0.000484072
14 *76:32 *170:76 0.000118081
15 *76:32 *179:39 0.000170942
16 *76:32 *200:30 0.000771007
17 *76:32 *204:53 0
18 *76:50 *1327:C 0.000442531
19 *76:50 *1364:A2 6.70564e-05
20 *76:50 *1364:B1 0
21 *76:50 *1415:A 4.06927e-05
22 *76:50 *1435:B 0
23 *76:50 *1455:A 0.000194963
24 *76:50 *133:10 0
25 *76:50 *139:14 0.000254158
26 *76:50 *165:26 0.000804673
27 *76:50 *181:75 3.60876e-05
28 *76:50 *181:92 0.000168985
29 *76:50 *188:31 0.000136126
30 *76:50 *207:26 0
31 *76:50 *207:81 0.00014164
32 *1513:RESET_B *76:32 7.03276e-05
33 *1515:D *1523:RESET_B 0.000109319
34 *1515:RESET_B *1523:RESET_B 0.000582439
35 *22:20 *76:50 2.41099e-05
36 *47:12 *1523:RESET_B 4.77769e-05
37 *47:12 *76:50 4.45567e-05
38 *47:26 *1523:RESET_B 0.000363749
*RES
1 *1491:Y *76:32 38.7275 
2 *76:32 *76:50 49.1075 
3 *76:50 *1523:RESET_B 27.6275 
*END

*D_NET *77 0.0102298
*CONN
*I *1524:RESET_B I *D sky130_fd_sc_hd__dfrtp_4
*I *1492:Y O *D sky130_fd_sc_hd__inv_2
*CAP
1 *1524:RESET_B 0.000758696
2 *1492:Y 0.000850515
3 *77:12 0.00160921
4 *1524:RESET_B *1404:A 0.000134141
5 *1524:RESET_B *1455:A 0
6 *1524:RESET_B *149:14 0.000420003
7 *1524:RESET_B *157:14 0.00109895
8 *1524:RESET_B *207:81 0.000420674
9 *77:12 *1432:A 0.000167983
10 *77:12 *93:8 0.00234073
11 *77:12 *163:12 0.000316988
12 *77:12 *179:131 0.000519489
13 *77:12 *207:16 0.000167645
14 *1503:RESET_B *1524:RESET_B 0.000288547
15 *70:34 *77:12 0.00113624
*RES
1 *1492:Y *77:12 33.15 
2 *77:12 *1524:RESET_B 22.25 
*END

*D_NET *78 0.00611174
*CONN
*I *1525:RESET_B I *D sky130_fd_sc_hd__dfrtp_4
*I *1493:Y O *D sky130_fd_sc_hd__inv_2
*CAP
1 *1525:RESET_B 0.000956918
2 *1493:Y 0.000956918
3 *1525:RESET_B *1334:A 0.000609808
4 *1525:RESET_B *1390:C 0.000119945
5 *1525:RESET_B *1428:A 0.001343
6 *1525:RESET_B *1446:C 5.8023e-05
7 *1525:RESET_B *85:10 5.69898e-06
8 *1525:RESET_B *88:66 0.000925784
9 *1525:RESET_B *144:14 0.00060033
10 *1525:RESET_B *170:64 5.79113e-05
11 *1525:RESET_B *189:28 0.000257127
12 *1525:RESET_B *189:87 2.79929e-05
13 *1525:RESET_B *216:32 0.000152827
14 *49:16 *1525:RESET_B 3.94628e-05
*RES
1 *1493:Y *1525:RESET_B 33.2225 
*END

*D_NET *79 0.0152437
*CONN
*I *1526:RESET_B I *D sky130_fd_sc_hd__dfrtp_4
*I *1494:Y O *D sky130_fd_sc_hd__inv_2
*CAP
1 *1526:RESET_B 0.00480652
2 *1494:Y 0.00480652
3 *1526:RESET_B *1331:B 0.000181904
4 *1526:RESET_B *1359:A 0.00133357
5 *1526:RESET_B *1370:C 0
6 *1526:RESET_B *1380:A1 0.00128874
7 *1526:RESET_B *1383:C 4.92906e-05
8 *1526:RESET_B *1439:A 0.000307639
9 *1526:RESET_B *1518:CLK 0.000190156
10 *1526:RESET_B *1529:A 1.35153e-05
11 *1526:RESET_B *86:10 0
12 *1526:RESET_B *103:24 0.00168973
13 *1526:RESET_B *115:101 0
14 *1526:RESET_B *154:12 0
15 *1526:RESET_B *174:36 0.000139897
16 *1526:RESET_B *182:12 0.000355057
17 *1526:RESET_B *208:16 0
18 *1505:D *1526:RESET_B 0
19 *1513:D *1526:RESET_B 8.11444e-05
*RES
1 *1494:Y *1526:RESET_B 44.2231 
*END

*D_NET *80 0.00944889
*CONN
*I *1523:D I *D sky130_fd_sc_hd__dfrtp_4
*I *1339:Y O *D sky130_fd_sc_hd__a21oi_1
*CAP
1 *1523:D 0.000108979
2 *1339:Y 0.00149403
3 *80:16 0.00160301
4 *1523:D *1515:CLK 0.000304455
5 *80:16 *1330:A 0.000193801
6 *80:16 *1339:B1 0.000102174
7 *80:16 *1340:A 7.03881e-05
8 *80:16 *1369:A 8.23457e-05
9 *80:16 *1375:B 0.000548619
10 *80:16 *1377:B 2.81301e-05
11 *80:16 *1381:A 0.00231646
12 *80:16 *1442:A 0.000190489
13 *80:16 *1456:A 4.77719e-05
14 *80:16 *1492:A 0.000132821
15 *80:16 *86:10 0
16 *80:16 *88:14 3.13447e-05
17 *80:16 *117:24 7.42598e-05
18 *80:16 *177:18 0.000956624
19 *80:16 *187:34 0.000114958
20 *80:16 *193:20 0.000446174
21 *1515:D *1523:D 0.000102732
22 *1523:RESET_B *1523:D 0.00048733
23 *53:18 *80:16 1.19928e-05
24 *54:30 *80:16 0
*RES
1 *1339:Y *80:16 46.235 
2 *80:16 *1523:D 6.19 
*END

*D_NET *81 0.00512423
*CONN
*I *1524:D I *D sky130_fd_sc_hd__dfrtp_4
*I *1337:Y O *D sky130_fd_sc_hd__nor2_1
*CAP
1 *1524:D 0.00107379
2 *1337:Y 0.00107379
3 *1524:D *1337:A 0.000243828
4 *1524:D *1390:C 1.79483e-05
5 *1524:D *1447:A 0.000212536
6 *1524:D *1452:B1 0.000632298
7 *1524:D *1508:CLK 0.000840483
8 *1524:D *1524:CLK 5.83121e-06
9 *1524:D *97:10 0.000197882
10 *1524:D *97:12 0.000131585
11 *1524:D *157:14 7.90657e-06
12 *1524:D *167:18 0.000448151
13 *1524:D *174:36 0.000130527
14 *1524:D *224:59 9.56774e-05
15 *1513:RESET_B *1524:D 1.19928e-05
*RES
1 *1337:Y *1524:D 31.635 
*END

*D_NET *82 0.00493115
*CONN
*I *1525:D I *D sky130_fd_sc_hd__dfrtp_4
*I *1335:X O *D sky130_fd_sc_hd__clkbuf_1
*CAP
1 *1525:D 0.00137545
2 *1335:X 0.00137545
3 *1525:D *1383:C 1.87328e-05
4 *1525:D *1431:A 0
5 *1525:D *156:10 0.000111293
6 *1525:D *156:31 0.00145964
7 *1525:D *168:30 4.40693e-06
8 *1525:D *170:64 0.000175827
9 *1525:D *181:31 2.20014e-05
10 *1525:D *181:44 0.00026259
11 *1525:D *209:39 3.93263e-05
12 *1522:RESET_B *1525:D 8.64421e-05
*RES
1 *1335:X *1525:D 32.415 
*END

*D_NET *83 0.00601371
*CONN
*I *1526:D I *D sky130_fd_sc_hd__dfrtp_4
*I *1329:Y O *D sky130_fd_sc_hd__xnor2_1
*CAP
1 *1526:D 0.00192417
2 *1329:Y 0.00192417
3 *1526:D *1526:CLK 4.17521e-05
4 *1526:D *190:48 3.15819e-05
5 *1526:D *190:58 0.00201542
6 *1526:D *190:73 7.66083e-05
*RES
1 *1329:Y *1526:D 27.47 
*END

*D_NET *84 0.0260466
*CONN
*I *1337:A I *D sky130_fd_sc_hd__nor2_1
*I *1333:B1 I *D sky130_fd_sc_hd__o2bb2a_1
*I *1328:B I *D sky130_fd_sc_hd__nand2_1
*I *1327:X O *D sky130_fd_sc_hd__and3_2
*CAP
1 *1337:A 0.00108543
2 *1333:B1 0.00168678
3 *1328:B 5.32038e-05
4 *1327:X 0.00148286
5 *84:20 0.0020822
6 *84:14 0.00291051
7 *1328:B *1339:B1 0.000105093
8 *1328:B *187:128 0.000134954
9 *1333:B1 *1333:A2_N 2.76356e-05
10 *1333:B1 *1333:B2 0.00155268
11 *1333:B1 *1357:A 0.000114492
12 *1333:B1 *1358:C 0
13 *1333:B1 *1400:B 6.07575e-06
14 *1333:B1 *1415:A 7.96104e-06
15 *1333:B1 *1424:A 4.22064e-05
16 *1333:B1 *1427:B 9.66743e-05
17 *1333:B1 *1434:B 0
18 *1333:B1 *1455:B 3.33337e-05
19 *1333:B1 *1459:A1 1.34503e-05
20 *1333:B1 *1459:A2 0.00141124
21 *1333:B1 *94:16 1.93765e-05
22 *1333:B1 *105:130 1.79483e-05
23 *1333:B1 *156:31 0.000129127
24 *1333:B1 *177:18 6.15576e-06
25 *1333:B1 *198:16 0.000192125
26 *1333:B1 *199:56 0.00038394
27 *1333:B1 *210:62 0.000174553
28 *1333:B1 *211:27 6.97118e-05
29 *1333:B1 *219:14 0.000214507
30 *1337:A *1414:C 0.000338004
31 *1337:A *1455:A 0.00045166
32 *1337:A *1508:CLK 0.000887428
33 *1337:A *1532:A 1.51783e-05
34 *1337:A *97:10 0.000190978
35 *1337:A *97:12 0.000170541
36 *1337:A *115:132 2.86895e-05
37 *1337:A *149:14 0.00045166
38 *1337:A *167:18 0.000338004
39 *1337:A *180:58 0.000339031
40 *1337:A *185:16 0.000267562
41 *1337:A *216:32 0.000337861
42 *1337:A *224:59 0.0018884
43 *84:14 *1327:B 0.00112342
44 *84:14 *1364:A3 0.000177547
45 *84:14 *1404:A 0.000584633
46 *84:14 *1422:D 5.4003e-05
47 *84:14 *1488:A 0.000470595
48 *84:14 *133:10 0.000398481
49 *84:14 *142:28 0.000523145
50 *84:14 *206:69 0.000198974
51 *84:14 *207:81 0.000163012
52 *84:14 *207:100 4.82919e-05
53 *84:20 *1404:A 8.23457e-05
54 *84:20 *187:128 0.000509187
55 *1394:A *84:14 4.36573e-06
56 *1524:D *1337:A 0.000243828
57 *22:20 *1333:B1 0.000279289
58 *47:95 *84:14 0.000457563
59 *50:30 *1328:B 4.66108e-05
60 *50:30 *1333:B1 2.73058e-05
61 *50:30 *84:14 0.000141874
62 *50:30 *84:20 0.000752942
*RES
1 *1327:X *84:14 43.415 
2 *84:14 *84:20 8.85 
3 *84:20 *1328:B 3.7375 
4 *84:20 *1333:B1 44.0766 
5 *84:14 *1337:A 46.32 
*END

*D_NET *85 0.0147542
*CONN
*I *1329:B I *D sky130_fd_sc_hd__xnor2_1
*I *1334:A I *D sky130_fd_sc_hd__and2_1
*I *1328:Y O *D sky130_fd_sc_hd__nand2_1
*CAP
1 *1329:B 0.000407645
2 *1334:A 0.00144354
3 *1328:Y 0.000423996
4 *85:10 0.00227518
5 *1329:B *189:28 0.000307328
6 *1329:B *190:58 0.000730954
7 *1329:B *190:73 0.000109377
8 *1329:B *221:37 0.000938695
9 *1334:A *1334:B 8.52845e-05
10 *1334:A *1352:B1_N 7.49327e-05
11 *1334:A *1380:A1 9.49631e-05
12 *1334:A *1390:C 0.000245189
13 *1334:A *1428:A 1.85349e-05
14 *1334:A *1446:B 0
15 *1334:A *1446:C 7.90673e-05
16 *1334:A *1449:A1 0.000525709
17 *1334:A *1450:B 0.000299647
18 *1334:A *129:16 0.00185532
19 *1334:A *189:28 0.000699118
20 *1334:A *203:33 0.000281664
21 *1334:A *217:10 5.73518e-05
22 *85:10 *1377:B 0.000300856
23 *85:10 *1428:A 2.31737e-05
24 *85:10 *87:24 6.47517e-05
25 *85:10 *87:51 9.80861e-05
26 *85:10 *187:128 8.40269e-05
27 *85:10 *189:28 0.000476148
28 *85:10 *189:87 0.000459793
29 *85:10 *203:33 0.000150343
30 *1525:RESET_B *1334:A 0.000609808
31 *1525:RESET_B *85:10 5.69898e-06
32 *22:20 *85:10 9.04636e-05
33 *23:16 *1334:A 0.00143752
*RES
1 *1328:Y *85:10 15.975 
2 *85:10 *1334:A 45.0145 
3 *85:10 *1329:B 17.505 
*END

*D_NET *86 0.0242196
*CONN
*I *1454:B1 I *D sky130_fd_sc_hd__a21oi_1
*I *1331:B I *D sky130_fd_sc_hd__nand2_2
*I *1330:Y O *D sky130_fd_sc_hd__nor2_2
*CAP
1 *1454:B1 0.000357704
2 *1331:B 0.00544609
3 *1330:Y 0.00122818
4 *86:10 0.00703197
5 *1331:B *1359:A 0
6 *1331:B *1362:A 0.000274963
7 *1331:B *1384:A 0.000799781
8 *1331:B *1429:C 0.000299475
9 *1331:B *1433:A2 0.000633276
10 *1331:B *1443:B 0.00205624
11 *1331:B *1527:A 1.81196e-05
12 *1331:B *95:36 0.000128834
13 *1331:B *103:71 7.54579e-05
14 *1331:B *168:30 0.000117391
15 *1331:B *183:51 0.000100702
16 *1331:B *183:68 0.000183043
17 *1331:B *200:30 7.56834e-05
18 *1331:B *209:39 0.000111679
19 *1454:B1 *1383:A 2.39856e-05
20 *1454:B1 *1454:A1 0.000127302
21 *1454:B1 *105:70 0.000523623
22 *1454:B1 *191:30 0.000256208
23 *1454:B1 *194:20 5.9448e-05
24 *1454:B1 *223:29 0.000669138
25 *86:10 *1330:A 0
26 *86:10 *1330:B 4.99581e-05
27 *86:10 *1340:A 0
28 *86:10 *1365:A_N 0
29 *86:10 *1365:C 4.82919e-05
30 *86:10 *1415:A 0.000585483
31 *86:10 *1433:A2 0.00202567
32 *86:10 *177:18 0
33 *1502:D *1331:B 0
34 *1505:D *1331:B 5.43539e-05
35 *1507:RESET_B *86:10 0.000675625
36 *1513:D *1331:B 0
37 *1513:D *86:10 0
38 *1526:RESET_B *1331:B 0.000181904
39 *1526:RESET_B *86:10 0
40 *54:30 *86:10 0
41 *80:16 *86:10 0
*RES
1 *1330:Y *86:10 33.225 
2 *86:10 *1331:B 39.4979 
3 *86:10 *1454:B1 14.415 
*END

*D_NET *87 0.0200813
*CONN
*I *1459:B1_N I *D sky130_fd_sc_hd__a21boi_2
*I *1338:A2 I *D sky130_fd_sc_hd__a21oi_1
*I *1332:B I *D sky130_fd_sc_hd__nor2_1
*I *1331:Y O *D sky130_fd_sc_hd__nand2_2
*CAP
1 *1459:B1_N 0.000234787
2 *1338:A2 2.6306e-05
3 *1332:B 0.00095821
4 *1331:Y 0.00422316
5 *87:51 0.000598948
6 *87:24 0.00551923
7 *1332:B *1390:B 0.000274065
8 *1332:B *1530:A 9.05535e-05
9 *1332:B *88:66 0.000405753
10 *1332:B *107:38 4.66108e-05
11 *1332:B *109:30 6.69608e-06
12 *1332:B *184:97 4.02124e-05
13 *1332:B *184:99 7.9642e-06
14 *1332:B *187:34 2.2142e-05
15 *1332:B *199:56 8.9257e-05
16 *1338:A2 *1338:A1 4.66108e-05
17 *1338:A2 *187:111 1.91597e-05
18 *1338:A2 *189:95 8.23457e-05
19 *1459:B1_N *1357:A 0.000141933
20 *1459:B1_N *181:75 0.000167564
21 *1459:B1_N *189:87 7.9642e-06
22 *1459:B1_N *210:62 0.000196041
23 *87:24 *1336:A1 9.57858e-05
24 *87:24 *1359:A 0.000166247
25 *87:24 *1390:C 0.000176741
26 *87:24 *1443:B 0.000530204
27 *87:24 *1446:B 0.00143201
28 *87:24 *97:67 0.000357681
29 *87:24 *105:20 0.000233901
30 *87:24 *107:38 6.90254e-05
31 *87:24 *139:26 1.23223e-05
32 *87:24 *174:36 0.000133494
33 *87:24 *181:58 0.000452785
34 *87:24 *203:33 0.000112979
35 *87:24 *206:32 2.42211e-05
36 *87:51 *1377:B 0.000302277
37 *87:51 *107:38 2.02316e-05
38 *87:51 *181:58 0.000192331
39 *87:51 *181:75 1.80792e-05
40 *87:51 *189:87 0.000212618
41 *1513:D *87:24 0.00120116
42 *1516:D *1332:B 0.000283967
43 *1528:A *87:24 0.000345554
44 *22:20 *1459:B1_N 4.92345e-05
45 *70:34 *1459:B1_N 0.000181361
46 *70:34 *87:51 0.000108695
47 *85:10 *87:24 6.47517e-05
48 *85:10 *87:51 9.80861e-05
*RES
1 *1331:Y *87:24 35.2816 
2 *87:24 *1332:B 25.04 
3 *87:24 *87:51 8.775 
4 *87:51 *1338:A2 4.395 
5 *87:51 *1459:B1_N 9.825 
*END

*D_NET *88 0.0173253
*CONN
*I *1452:B1 I *D sky130_fd_sc_hd__a2111o_2
*I *1453:A I *D sky130_fd_sc_hd__nor2_1
*I *1333:A2_N I *D sky130_fd_sc_hd__o2bb2a_1
*I *1332:Y O *D sky130_fd_sc_hd__nor2_1
*CAP
1 *1452:B1 0.000465212
2 *1453:A 2.06731e-05
3 *1333:A2_N 0.000636092
4 *1332:Y 2.73278e-05
5 *88:66 0.00187971
6 *88:14 0.00120728
7 *88:6 0.00199235
8 *1333:A2_N *1333:B2 3.81908e-06
9 *1333:A2_N *1453:B 0.000192125
10 *1333:A2_N *94:16 0.000403642
11 *1333:A2_N *176:12 0.0002294
12 *1452:B1 *1447:A 0.000898279
13 *1452:B1 *1452:C1 6.41634e-05
14 *1452:B1 *97:12 9.23517e-06
15 *1452:B1 *157:14 6.27434e-06
16 *1452:B1 *167:18 0.000454233
17 *1452:B1 *174:36 0.000145954
18 *1453:A *1453:B 3.74161e-05
19 *88:6 *1390:B 2.20608e-05
20 *88:6 *109:30 7.32336e-05
21 *88:14 *1390:B 0.000128446
22 *88:14 *1414:B 7.28465e-06
23 *88:14 *109:30 0.000562249
24 *88:14 *184:82 6.90254e-05
25 *88:14 *193:20 0.00082448
26 *88:66 *1369:A 0
27 *88:66 *1420:B1 0.000557391
28 *88:66 *1433:A1 0.000108476
29 *88:66 *1516:CLK 0.000405753
30 *88:66 *1530:A 0
31 *88:66 *95:36 7.65551e-05
32 *88:66 *115:22 0.000153816
33 *88:66 *144:14 7.18044e-05
34 *88:66 *153:12 1.7635e-05
35 *88:66 *156:31 8.23457e-05
36 *88:66 *159:26 0.000222119
37 *88:66 *187:44 3.88509e-05
38 *88:66 *189:28 0.000269916
39 *88:66 *203:33 0.000155304
40 *88:66 *208:16 4.97261e-05
41 *88:66 *210:60 1.88602e-05
42 *1332:B *88:66 0.000405753
43 *1333:B1 *1333:A2_N 2.76356e-05
44 *1495:RESET_B *88:66 0.000264213
45 *1507:D *88:66 0.000389084
46 *1516:D *88:66 5.74791e-05
47 *1524:D *1452:B1 0.000632298
48 *1525:RESET_B *88:66 0.000925784
49 *48:12 *88:66 4.08275e-05
50 *49:16 *88:66 0.000613133
51 *54:30 *88:14 0.000535952
52 *68:18 *88:66 0.000813326
53 *80:16 *88:14 3.13447e-05
*RES
1 *1332:Y *88:6 2.395 
2 *88:6 *88:14 20.095 
3 *88:14 *1333:A2_N 17.405 
4 *88:14 *1453:A 2.05 
5 *88:6 *88:66 46.5609 
6 *88:66 *1452:B1 17.94 
*END

*D_NET *89 0.00986797
*CONN
*I *1334:B I *D sky130_fd_sc_hd__and2_1
*I *1333:X O *D sky130_fd_sc_hd__o2bb2a_1
*CAP
1 *1334:B 0.000250767
2 *1333:X 0.00123773
3 *89:16 0.0014885
4 *1334:B *1397:A 0.000415929
5 *1334:B *129:16 0.000355637
6 *1334:B *129:20 5.83121e-06
7 *89:16 *1333:A1_N 4.82919e-05
8 *89:16 *1333:B2 2.75229e-05
9 *89:16 *1383:A 0.000617955
10 *89:16 *1443:B 0.000333806
11 *89:16 *105:130 8.77376e-05
12 *89:16 *130:12 0.00227548
13 *89:16 *184:27 6.20747e-05
14 *89:16 *184:38 0.000194908
15 *89:16 *215:35 0.00141447
16 *1334:A *1334:B 8.52845e-05
17 *1509:RESET_B *89:16 0.000966038
*RES
1 *1333:X *89:16 47.51 
2 *89:16 *1334:B 8.26 
*END

*D_NET *90 0.00493134
*CONN
*I *1335:A I *D sky130_fd_sc_hd__clkbuf_1
*I *1334:X O *D sky130_fd_sc_hd__and2_1
*CAP
1 *1335:A 0.00113642
2 *1334:X 0.00113642
3 *1335:A *1336:A2 0
4 *1335:A *1384:A 0.000511648
5 *1335:A *1397:B 6.56698e-05
6 *1335:A *1522:CLK 8.41307e-05
7 *1335:A *103:71 0.000397193
8 *1335:A *181:31 0.000215632
9 *1335:A *194:20 0.000257913
10 *1335:A *199:56 0.000330186
11 *1335:A *199:62 0.000131836
12 *1335:A *226:6 4.66108e-05
13 *1335:A *226:16 0.000153816
14 *1522:D *1335:A 2.69153e-05
15 *1522:RESET_B *1335:A 0.000436944
*RES
1 *1334:X *1335:A 35.56 
*END

*D_NET *91 0.00587005
*CONN
*I *1337:B I *D sky130_fd_sc_hd__nor2_1
*I *1336:Y O *D sky130_fd_sc_hd__a21oi_1
*CAP
1 *1337:B 0.00142553
2 *1336:Y 0.00142553
3 *1337:B *1349:A3 0.000136413
4 *1337:B *1351:A2 0.000248895
5 *1337:B *1392:B1 0.000344941
6 *1337:B *1398:A 0
7 *1337:B *1414:C 4.77757e-05
8 *1337:B *1450:B 0
9 *1337:B *1452:C1 3.93162e-05
10 *1337:B *1471:A 9.50342e-06
11 *1337:B *1475:A 4.77757e-05
12 *1337:B *143:18 0.000112123
13 *1337:B *156:10 0.00101898
14 *1337:B *167:18 0.000119246
15 *1337:B *174:36 0.000339646
16 *1337:B *180:31 0.000309752
17 *1337:B *189:28 0
18 *1337:B *200:50 6.90254e-05
19 *1521:D *1337:B 0.000160338
20 *31:16 *1337:B 1.52652e-05
*RES
1 *1336:Y *1337:B 38.605 
*END

*D_NET *92 0.00253432
*CONN
*I *1339:B1 I *D sky130_fd_sc_hd__a21oi_1
*I *1338:Y O *D sky130_fd_sc_hd__a21oi_1
*CAP
1 *1339:B1 0.000415448
2 *1338:Y 0.000415448
3 *1339:B1 *1328:A 4.21973e-05
4 *1339:B1 *1375:B 9.45113e-05
5 *1339:B1 *103:24 3.52348e-05
6 *1339:B1 *156:31 0.000375353
7 *1339:B1 *180:58 0
8 *1339:B1 *180:125 0
9 *1339:B1 *187:128 2.04754e-05
10 *1339:B1 *189:95 4.99619e-05
11 *1328:B *1339:B1 0.000105093
12 *1514:D *1339:B1 0.000491145
13 *50:30 *1339:B1 0.000118081
14 *53:18 *1339:B1 0.000269203
15 *80:16 *1339:B1 0.000102174
*RES
1 *1338:Y *1339:B1 19.005 
*END

*D_NET *93 0.0169807
*CONN
*I *1448:A1 I *D sky130_fd_sc_hd__a21o_1
*I *1352:A1 I *D sky130_fd_sc_hd__a21bo_2
*I *1340:Y O *D sky130_fd_sc_hd__inv_2
*CAP
1 *1448:A1 6.52939e-05
2 *1352:A1 0.000634439
3 *1340:Y 0.00239558
4 *93:14 0.00141061
5 *93:8 0.00310645
6 *1352:A1 *1331:A 0.000116151
7 *1352:A1 *1440:B1 5.79844e-05
8 *1352:A1 *1448:A2 0.00186536
9 *1352:A1 *1452:A1 4.31106e-05
10 *1352:A1 *1452:A2 0.00167735
11 *1352:A1 *188:21 0.000137069
12 *1448:A1 *174:36 8.23457e-05
13 *93:8 *1432:A 5.00334e-05
14 *93:8 *179:131 0.000818498
15 *93:14 *1448:A2 5.0096e-05
16 *93:14 *147:76 0.000722515
17 *93:14 *170:64 0.00011319
18 *93:14 *188:21 0.000882811
19 *93:14 *206:49 1.88602e-05
20 *51:8 *93:14 0.000392224
21 *77:12 *93:8 0.00234073
*RES
1 *1340:Y *93:8 35.79 
2 *93:8 *93:14 20.295 
3 *93:14 *1352:A1 27.42 
4 *93:14 *1448:A1 4.395 
*END

*D_NET *94 0.0161749
*CONN
*I *1351:A1 I *D sky130_fd_sc_hd__o211ai_4
*I *1341:X O *D sky130_fd_sc_hd__a21o_1
*CAP
1 *1351:A1 0.000892097
2 *1341:X 0.00101197
3 *94:16 0.00256719
4 *94:8 0.00268706
5 *1351:A1 *1363:A 0.000220007
6 *1351:A1 *1407:A 0.000782756
7 *1351:A1 *143:18 0.000381907
8 *1351:A1 *210:33 0
9 *1351:A1 *215:8 4.94587e-05
10 *1351:A1 *215:35 0.0018934
11 *94:8 *1341:A1 3.90873e-06
12 *94:8 *1341:A2 0.00052681
13 *94:8 *1341:B1 1.83847e-05
14 *94:16 *1442:C 0.000449039
15 *94:16 *1451:B 0.000181584
16 *94:16 *1454:A1 1.66925e-05
17 *94:16 *1474:A 0.000876684
18 *94:16 *105:130 0.000642974
19 *94:16 *130:12 0.000189897
20 *94:16 *134:73 0.000131052
21 *94:16 *146:26 0.000105705
22 *94:16 *166:10 0
23 *94:16 *168:55 0.000173328
24 *94:16 *176:12 8.48849e-05
25 *94:16 *187:22 0.0002989
26 *94:16 *194:20 0.000597585
27 *94:16 *196:22 0.00057597
28 *94:16 *218:30 0.000233271
29 *1333:A2_N *94:16 0.000403642
30 *1333:B1 *94:16 1.93765e-05
31 *1499:D *94:16 0
32 *1509:RESET_B *94:16 0.000159391
33 *55:10 *94:16 0
*RES
1 *1341:X *94:8 16.815 
2 *94:8 *94:16 49.885 
3 *94:16 *1351:A1 30.465 
*END

*D_NET *95 0.0420666
*CONN
*I *1373:C I *D sky130_fd_sc_hd__and3_1
*I *1386:C I *D sky130_fd_sc_hd__and4_2
*I *230:DIODE I *D sky130_fd_sc_hd__diode_2
*I *1344:A I *D sky130_fd_sc_hd__and2_2
*I *1368:B I *D sky130_fd_sc_hd__nand2_1
*I *1372:A2 I *D sky130_fd_sc_hd__a21oi_1
*I *1365:A_N I *D sky130_fd_sc_hd__and3b_1
*I *1369:B I *D sky130_fd_sc_hd__or2_1
*I *1342:X O *D sky130_fd_sc_hd__and4_4
*CAP
1 *1373:C 0.00121078
2 *1386:C 0
3 *230:DIODE 6.4414e-05
4 *1344:A 0.000216839
5 *1368:B 0
6 *1372:A2 0
7 *1365:A_N 0.00180229
8 *1369:B 0
9 *1342:X 0.00104012
10 *95:113 7.72752e-05
11 *95:109 0.00275648
12 *95:98 0.00232039
13 *95:83 0.00106783
14 *95:68 0.00128204
15 *95:36 0.00430169
16 *95:12 0.00432445
17 *230:DIODE *1386:A 0.000124007
18 *230:DIODE *1394:C 0.000201003
19 *1344:A *1344:B 0.000595666
20 *1344:A *1411:A1 0.000521876
21 *1344:A *97:10 9.97903e-05
22 *1344:A *181:151 9.86509e-05
23 *1365:A_N *1330:A 0.00140508
24 *1365:A_N *1365:C 3.99879e-05
25 *1365:A_N *1433:A2 0
26 *1365:A_N *1434:B 5.05716e-06
27 *1365:A_N *1451:A_N 0.000798403
28 *1365:A_N *1451:C 5.26364e-05
29 *1365:A_N *188:37 0.000297964
30 *1365:A_N *218:72 0.000176819
31 *1373:C *120:18 0.000531847
32 *1373:C *147:76 0
33 *1373:C *221:52 0.000338773
34 *95:12 *1342:D 0
35 *95:12 *1446:C 0.000200037
36 *95:12 *1450:B 0.00175469
37 *95:12 *130:12 0.000158072
38 *95:12 *219:20 0
39 *95:36 *1336:A2 0.000200354
40 *95:36 *1342:B 0.000828222
41 *95:36 *1362:B 0
42 *95:36 *1369:A 0.000617597
43 *95:36 *1397:A 9.05377e-05
44 *95:36 *1414:A 0.000103135
45 *95:36 *1433:A2 1.3494e-05
46 *95:36 *1443:B 3.29837e-05
47 *95:36 *1530:A 1.92979e-05
48 *95:36 *97:67 0.000153417
49 *95:36 *103:71 1.65129e-05
50 *95:36 *105:45 0
51 *95:36 *105:49 0.000292919
52 *95:36 *105:66 0.000155119
53 *95:36 *167:18 8.96003e-05
54 *95:36 *168:30 6.6628e-06
55 *95:36 *183:51 3.89612e-05
56 *95:36 *187:34 0.000286321
57 *95:68 *1372:B1 4.82863e-05
58 *95:68 *1450:B 0.00163427
59 *95:68 *1461:A 4.9968e-05
60 *95:83 *1352:B1_N 0.000278051
61 *95:83 *1372:B1 0.00010978
62 *95:83 *1420:A1 0
63 *95:83 *1450:B 0.000417196
64 *95:83 *1494:A 0
65 *95:83 *97:18 0.000203769
66 *95:83 *129:16 0.000163339
67 *95:83 *191:43 0
68 *95:83 *191:66 0.00050759
69 *95:83 *207:122 0.000195586
70 *95:83 *220:66 0.000562654
71 *95:98 *1347:D 0.000101631
72 *95:98 *1352:B1_N 0.000105799
73 *95:98 *1374:B 0.000680831
74 *95:98 *1452:D1 0
75 *95:98 *1527:A 3.82018e-05
76 *95:98 *1540:A 0.000182132
77 *95:98 *129:16 0.000620628
78 *95:109 *1343:B 0.000297455
79 *95:109 *1347:D 1.10951e-05
80 *95:109 *1374:B 0.000534862
81 *95:109 *1404:A 0.00057532
82 *95:109 *1527:A 0.000375079
83 *95:109 *120:18 0.000681285
84 *95:109 *129:10 0.000380726
85 *95:109 *147:76 0
86 *95:109 *205:10 0.00107762
87 *95:109 *205:50 1.95781e-05
88 *95:109 *216:20 7.47115e-05
89 *95:109 *219:10 3.85204e-05
90 *95:109 *222:18 0.000136991
91 *95:109 *223:29 0.00015527
92 *95:113 *1394:C 4.77719e-05
93 *1331:B *95:36 0.000128834
94 *1498:D *1365:A_N 0
95 *1511:D *1373:C 0.000158965
96 *1516:D *1365:A_N 1.90818e-05
97 *1516:D *95:36 1.1071e-05
98 *22:20 *230:DIODE 6.36548e-05
99 *22:20 *95:113 1.31227e-05
100 *45:24 *95:12 0.000159747
101 *48:12 *95:68 0.000269521
102 *51:8 *95:98 0
103 *61:24 *95:68 4.9968e-05
104 *70:34 *1365:A_N 0
105 *86:10 *1365:A_N 0
106 *88:66 *95:36 7.65551e-05
*RES
1 *1342:X *95:12 26.36 
2 *95:12 *95:36 28.4002 
3 *95:36 *1369:B 3.6 
4 *95:36 *1365:A_N 34.545 
5 *95:12 *95:68 20.005 
6 *95:68 *1372:A2 1.6 
7 *95:68 *95:83 21.1225 
8 *95:83 *1368:B 1.6 
9 *95:83 *95:98 16.6775 
10 *95:98 *1344:A 10.95 
11 *95:98 *95:109 41.16 
12 *95:109 *95:113 2.45 
13 *95:113 *230:DIODE 4.6 
14 *95:113 *1386:C 1.6 
15 *95:109 *1373:C 21.4875 
*END

*D_NET *96 0.0104888
*CONN
*I *1386:D I *D sky130_fd_sc_hd__and4_2
*I *1344:B I *D sky130_fd_sc_hd__and2_2
*I *1343:X O *D sky130_fd_sc_hd__and4_1
*CAP
1 *1386:D 0.000969891
2 *1344:B 0.000539754
3 *1343:X 0
4 *96:6 0.00150965
5 *1344:B *1374:C 0.000354313
6 *1344:B *1440:A2 0.00019532
7 *1344:B *97:10 0.000671333
8 *1344:B *120:20 0.000305419
9 *1344:B *129:10 8.85336e-05
10 *1344:B *165:26 0.000131525
11 *1344:B *204:53 0.000967508
12 *1386:D *1394:C 0.0001947
13 *1386:D *1435:B 0.000421601
14 *1386:D *1484:A 8.54317e-05
15 *1386:D *1488:A 3.49376e-05
16 *1386:D *120:18 0.000202088
17 *1386:D *120:20 0.000767617
18 *1386:D *129:10 7.67762e-05
19 *1386:D *142:28 0.000509819
20 *1386:D *204:53 0.000800207
21 *1386:D *210:91 5.8023e-05
22 *1344:A *1344:B 0.000595666
23 *1510:RESET_B *1386:D 0.000322356
24 *1511:D *1386:D 0.000686375
*RES
1 *1343:X *96:6 3.6 
2 *96:6 *1344:B 23.535 
3 *96:6 *1386:D 33.33 
*END

*D_NET *97 0.0300061
*CONN
*I *1380:C1 I *D sky130_fd_sc_hd__a211oi_2
*I *1381:B I *D sky130_fd_sc_hd__or2_1
*I *1385:A2 I *D sky130_fd_sc_hd__a21oi_1
*I *1382:B I *D sky130_fd_sc_hd__nand2_1
*I *1349:A2 I *D sky130_fd_sc_hd__o31a_1
*I *1344:X O *D sky130_fd_sc_hd__and2_2
*CAP
1 *1380:C1 0.00128876
2 *1381:B 0.00147281
3 *1385:A2 1.36534e-05
4 *1382:B 0.000343954
5 *1349:A2 2.0132e-05
6 *1344:X 0
7 *97:67 0.00234856
8 *97:18 0.00110024
9 *97:12 0.000962634
10 *97:10 0.00167798
11 *97:4 0.00187816
12 *1380:C1 *1380:A2 0.000270409
13 *1380:C1 *1380:B1 0.000270409
14 *1380:C1 *170:76 0.000112224
15 *1380:C1 *198:18 0.00116402
16 *1381:B *1383:A 4.66108e-05
17 *1381:B *98:12 0.000471511
18 *1381:B *98:14 0.000439576
19 *1381:B *175:34 0.000210846
20 *1381:B *178:18 0.00128467
21 *1381:B *183:18 0.000195326
22 *1381:B *199:62 0.000317706
23 *1381:B *210:33 0.000265757
24 *1382:B *1351:A2 7.30505e-05
25 *1382:B *1392:B1 4.66108e-05
26 *1382:B *1494:A 2.49909e-05
27 *1382:B *104:16 5.3477e-05
28 *1382:B *200:50 0.000130892
29 *1385:A2 *1420:B1 4.66108e-05
30 *1385:A2 *105:20 4.66108e-05
31 *97:10 *1408:A 0.000809593
32 *97:10 *1411:A1 2.35892e-05
33 *97:10 *168:30 8.73389e-06
34 *97:10 *179:39 0.00157252
35 *97:12 *157:14 0
36 *97:12 *224:59 0.000160089
37 *97:18 *1349:A1 0
38 *97:18 *1349:B1 0.000197862
39 *97:18 *1351:A2 4.42148e-05
40 *97:18 *1420:A1 0
41 *97:18 *1494:A 0
42 *97:18 *157:14 0
43 *97:18 *207:122 0
44 *97:18 *224:59 4.76263e-05
45 *97:18 *224:65 0.000838662
46 *97:67 *1336:A1 0.000153053
47 *97:67 *1385:B1 8.23457e-05
48 *97:67 *1461:A 0.000962518
49 *97:67 *103:71 0.000144201
50 *97:67 *165:51 0.00172257
51 *97:67 *168:30 0.00135631
52 *97:67 *193:22 0.000137288
53 *97:67 *194:24 8.06138e-05
54 *97:67 *206:32 0.000108838
55 *97:67 *225:29 0.000891044
56 *1337:A *97:10 0.000190978
57 *1337:A *97:12 0.000170541
58 *1344:A *97:10 9.97903e-05
59 *1344:B *97:10 0.000671333
60 *1452:B1 *97:12 9.23517e-06
61 *1505:RESET_B *1380:C1 0.000116165
62 *1509:D *1381:B 0.000238173
63 *1513:D *97:12 9.68083e-06
64 *1513:D *97:18 1.58143e-05
65 *1524:D *97:10 0.000197882
66 *1524:D *97:12 0.000131585
67 *45:24 *1381:B 0.000386355
68 *51:8 *1382:B 0.000216596
69 *57:16 *97:67 7.95969e-05
70 *74:20 *1380:C1 0.000837678
71 *87:24 *97:67 0.000357681
72 *95:36 *97:67 0.000153417
73 *95:83 *97:18 0.000203769
*RES
1 *1344:X *97:4 1.6 
2 *97:4 *97:10 21.755 
3 *97:10 *97:12 4.44 
4 *97:12 *97:18 17.12 
5 *97:18 *1349:A2 1.96 
6 *97:18 *1382:B 12.95 
7 *97:12 *1385:A2 4.05 
8 *97:10 *97:67 43.105 
9 *97:67 *1381:B 36.845 
10 *97:4 *1380:C1 31.97 
*END

*D_NET *98 0.0154491
*CONN
*I *1346:D I *D sky130_fd_sc_hd__or4_1
*I *1409:C I *D sky130_fd_sc_hd__and4_1
*I *1345:X O *D sky130_fd_sc_hd__and4_1
*CAP
1 *1346:D 0.00203574
2 *1409:C 0
3 *1345:X 0.00152433
4 *98:14 0.00297385
5 *98:12 0.00246244
6 *1346:D *1336:B1 0.000127057
7 *1346:D *1390:C 0
8 *1346:D *1541:A 0.000153481
9 *1346:D *104:16 0
10 *1346:D *146:26 5.05905e-05
11 *1346:D *200:63 0.000424791
12 *98:12 *1345:D 5.62329e-05
13 *98:12 *1366:A 0.000295403
14 *98:12 *134:14 0
15 *98:12 *168:55 0.00035018
16 *98:14 *1397:B 0.000622527
17 *98:14 *129:24 0
18 *98:14 *129:30 0.000357137
19 *98:14 *146:26 0.000100398
20 *98:14 *168:30 0.000523545
21 *98:14 *168:55 0.000436512
22 *98:14 *175:34 0.000209179
23 *98:14 *178:18 0.000672217
24 *98:14 *183:18 0.000195828
25 *229:DIODE *98:12 4.12756e-05
26 *1381:B *98:12 0.000471511
27 *1381:B *98:14 0.000439576
28 *1497:D *98:12 3.01127e-05
29 *1509:D *98:12 0.000107318
30 *1521:D *1346:D 0
31 *1528:A *1346:D 0
32 *32:16 *98:12 7.60206e-05
33 *32:16 *98:14 6.44978e-06
34 *45:24 *98:12 0.000282248
35 *52:32 *1346:D 0.000423121
*RES
1 *1345:X *98:12 30.6225 
2 *98:12 *98:14 29.7225 
3 *98:14 *1409:C 3.6 
4 *98:14 *1346:D 13.3084 
*END

*D_NET *99 0.00380455
*CONN
*I *1349:A3 I *D sky130_fd_sc_hd__o31a_1
*I *1346:X O *D sky130_fd_sc_hd__or4_1
*CAP
1 *1349:A3 0.00032355
2 *1346:X 0.00032355
3 *1349:A3 *1351:A2 0.00116557
4 *1349:A3 *1392:B1 1.42598e-05
5 *1349:A3 *1475:A 0.000302119
6 *1349:A3 *143:18 0
7 *1349:A3 *200:50 0.00142956
8 *1337:B *1349:A3 0.000136413
9 *31:16 *1349:A3 0.000109534
*RES
1 *1346:X *1349:A3 22.59 
*END

*D_NET *100 0.00975407
*CONN
*I *1348:C I *D sky130_fd_sc_hd__and4b_1
*I *1347:X O *D sky130_fd_sc_hd__and4b_1
*CAP
1 *1348:C 0.00100548
2 *1347:X 0.000832265
3 *100:14 0.00183774
4 *1348:C *1348:B 0.000487348
5 *1348:C *1348:D 0.000114486
6 *1348:C *1349:B1 0.00100244
7 *1348:C *1423:A 0.000547916
8 *1348:C *1423:B 0.000530296
9 *1348:C *156:10 0.000998752
10 *1348:C *207:126 0.000405082
11 *100:14 *1392:B1 0.000698938
12 *100:14 *1411:A1 0
13 *100:14 *1440:A2 0.000114719
14 *100:14 *129:10 4.1992e-05
15 *100:14 *139:26 0.00013732
16 *100:14 *200:50 0.000889543
17 *1505:D *100:14 9.18057e-05
18 *1519:RESET_B *100:14 1.79483e-05
*RES
1 *1347:X *100:14 25.64 
2 *100:14 *1348:C 32.77 
*END

*D_NET *101 0.00558092
*CONN
*I *1349:B1 I *D sky130_fd_sc_hd__o31a_1
*I *1348:X O *D sky130_fd_sc_hd__and4b_1
*CAP
1 *1349:B1 0.00119928
2 *1348:X 0.00119928
3 *1349:B1 *1336:A1 4.85146e-05
4 *1349:B1 *1351:A2 0.00131271
5 *1349:B1 *143:18 0.000532544
6 *1349:B1 *206:32 8.82975e-05
7 *1348:C *1349:B1 0.00100244
8 *31:16 *1349:B1 0
9 *97:18 *1349:B1 0.000197862
*RES
1 *1348:X *1349:B1 31.875 
*END

*D_NET *102 0.00636864
*CONN
*I *1351:A2 I *D sky130_fd_sc_hd__o211ai_4
*I *1349:X O *D sky130_fd_sc_hd__o31a_1
*CAP
1 *1351:A2 0.000756474
2 *1349:X 0.000756474
3 *1351:A2 *1336:B1 4.77807e-05
4 *1351:A2 *1351:C1 0.00024382
5 *1351:A2 *143:18 0.000912061
6 *1351:A2 *174:36 0.000341975
7 *1351:A2 *200:50 8.54923e-05
8 *1337:B *1351:A2 0.000248895
9 *1349:A3 *1351:A2 0.00116557
10 *1349:B1 *1351:A2 0.00131271
11 *1382:B *1351:A2 7.30505e-05
12 *1521:D *1351:A2 0.000380122
13 *97:18 *1351:A2 4.42148e-05
*RES
1 *1349:X *1351:A2 33.575 
*END

*D_NET *103 0.0233297
*CONN
*I *1351:B1 I *D sky130_fd_sc_hd__o211ai_4
*I *1439:A I *D sky130_fd_sc_hd__and2_2
*I *1350:X O *D sky130_fd_sc_hd__and4_2
*CAP
1 *1351:B1 0
2 *1439:A 0.0010985
3 *1350:X 0.00146964
4 *103:71 0.00249638
5 *103:24 0.00506451
6 *1439:A *1439:B 0.000482364
7 *1439:A *1446:C 0.00169582
8 *1439:A *1454:A1 0.0010322
9 *1439:A *166:10 0.000185664
10 *1439:A *168:8 0.000184999
11 *1439:A *176:41 0.000187929
12 *103:24 *1375:B 1.7635e-05
13 *103:24 *1380:A1 6.64094e-05
14 *103:24 *1383:C 8.63304e-05
15 *103:24 *1431:A 0.000481459
16 *103:24 *1446:C 0.00114242
17 *103:24 *156:31 0
18 *103:24 *180:58 8.25865e-05
19 *103:24 *212:23 0.000335695
20 *103:24 *225:39 0.000810628
21 *103:71 *1342:B 0.000129256
22 *103:71 *1351:C1 4.94587e-05
23 *103:71 *1362:A 2.69944e-05
24 *103:71 *1384:A 0.000225915
25 *103:71 *1414:B 0.000554522
26 *103:71 *1429:C 9.02309e-05
27 *103:71 *1433:A2 0
28 *103:71 *1449:B1 0
29 *103:71 *1541:A 0.000296027
30 *103:71 *139:47 0.000418469
31 *103:71 *153:12 0.00030603
32 *103:71 *168:30 5.68731e-05
33 *103:71 *176:41 8.41481e-05
34 *103:71 *183:81 7.06865e-05
35 *103:71 *193:20 0.000548451
36 *103:71 *196:22 0.000225585
37 *103:71 *199:56 0.000115148
38 *103:71 *209:12 6.36139e-05
39 *103:71 *209:39 3.45765e-05
40 *1331:B *103:71 7.54579e-05
41 *1335:A *103:71 0.000397193
42 *1339:B1 *103:24 3.52348e-05
43 *1514:RESET_B *103:71 0.000263671
44 *1526:RESET_B *1439:A 0.000307639
45 *1526:RESET_B *103:24 0.00168973
46 *52:32 *103:71 2.74961e-05
47 *53:18 *103:24 0.000155367
48 *95:36 *103:71 1.65129e-05
49 *97:67 *103:71 0.000144201
*RES
1 *1350:X *103:24 24.6494 
2 *103:24 *1439:A 13.6808 
3 *103:24 *103:71 48.9018 
4 *103:71 *1351:B1 3.6 
*END

*D_NET *104 0.0146903
*CONN
*I *1448:A2 I *D sky130_fd_sc_hd__a21o_1
*I *1352:A2 I *D sky130_fd_sc_hd__a21bo_2
*I *1351:Y O *D sky130_fd_sc_hd__o211ai_4
*CAP
1 *1448:A2 0.000885814
2 *1352:A2 2.43262e-05
3 *1351:Y 0.00291359
4 *104:16 0.00382373
5 *1352:A2 *1425:B 3.1835e-05
6 *1352:A2 *1440:A1 8.49205e-05
7 *1448:A2 *1331:A 1.0129e-05
8 *1448:A2 *1391:A 6.33103e-05
9 *1448:A2 *1440:A1 0.00012282
10 *1448:A2 *1440:B1 0.000171989
11 *1448:A2 *1452:A2 0.000109207
12 *1448:A2 *138:12 5.15794e-05
13 *1448:A2 *170:76 0.000133033
14 *104:16 *1331:A 1.80732e-05
15 *104:16 *1349:A1 0
16 *104:16 *1383:C 0.000345929
17 *104:16 *1390:C 0.0015502
18 *104:16 *1433:A1 0.000458684
19 *104:16 *1440:A1 1.39525e-05
20 *104:16 *1449:C1 1.88656e-05
21 *104:16 *115:101 0.000286629
22 *104:16 *138:12 0.000345605
23 *104:16 *143:18 0.000121986
24 *1346:D *104:16 0
25 *1352:A1 *1448:A2 0.00186536
26 *1382:B *104:16 5.3477e-05
27 *1519:RESET_B *104:16 0.000341642
28 *39:22 *104:16 1.78064e-05
29 *51:8 *1448:A2 0.000775718
30 *51:8 *104:16 0
31 *93:14 *1448:A2 5.0096e-05
*RES
1 *1351:Y *104:16 21.4943 
2 *104:16 *1352:A2 4.395 
3 *104:16 *1448:A2 33.985 
*END

*D_NET *105 0.034304
*CONN
*I *1429:A I *D sky130_fd_sc_hd__and3_1
*I *1353:A I *D sky130_fd_sc_hd__inv_2
*I *1365:B I *D sky130_fd_sc_hd__and3b_1
*I *1358:B I *D sky130_fd_sc_hd__and3_1
*I *1383:B I *D sky130_fd_sc_hd__and3_1
*I *1446:A I *D sky130_fd_sc_hd__and3_1
*I *1367:A I *D sky130_fd_sc_hd__buf_2
*I *1436:A I *D sky130_fd_sc_hd__and3_1
*I *1362:B I *D sky130_fd_sc_hd__and3_1
*I *1352:X O *D sky130_fd_sc_hd__a21bo_2
*CAP
1 *1429:A 5.20547e-05
2 *1353:A 0.000323852
3 *1365:B 0.000268628
4 *1358:B 0.00110019
5 *1383:B 0.000220474
6 *1446:A 0.000138673
7 *1367:A 0
8 *1436:A 0
9 *1362:B 0.000587504
10 *1352:X 0.00325448
11 *105:130 0.00131812
12 *105:107 0.00221913
13 *105:74 0.000436706
14 *105:70 0.000712256
15 *105:66 0.0009609
16 *105:49 0.000517977
17 *105:45 0.000417558
18 *105:20 0.00406336
19 *1358:B *109:30 0.000661253
20 *1358:B *164:12 0.000198617
21 *1362:B *1342:B 0
22 *1362:B *1362:A 4.58691e-05
23 *1362:B *1444:B 2.68721e-05
24 *1362:B *1445:A 0.000489119
25 *1362:B *1445:B 0.000186827
26 *1362:B *139:55 0.000121032
27 *1362:B *200:63 0.000275572
28 *1362:B *210:33 0.000700985
29 *1365:B *1366:A 5.53249e-06
30 *1365:B *134:37 2.90986e-05
31 *1365:B *166:10 8.08153e-06
32 *1383:B *1383:A 5.38986e-06
33 *1383:B *1383:C 1.61831e-05
34 *1383:B *1439:B 0.000124158
35 *1383:B *210:60 0.000147416
36 *1429:A *1397:B 0.000113637
37 *1429:A *176:41 4.12699e-05
38 *1446:A *115:8 0.000146359
39 *1446:A *191:30 5.83121e-06
40 *1446:A *223:29 0.00032587
41 *105:20 *1385:B1 2.50166e-05
42 *105:20 *1406:C 5.60478e-05
43 *105:20 *1415:A 0
44 *105:20 *1420:B1 0.000221442
45 *105:20 *1420:C1 4.66108e-05
46 *105:20 *1443:B 0
47 *105:20 *1541:A 0
48 *105:20 *115:76 0.000442815
49 *105:20 *115:101 7.79767e-06
50 *105:20 *224:59 6.01415e-05
51 *105:20 *224:65 0.000145682
52 *105:45 *1397:A 6.73751e-05
53 *105:45 *1397:B 0.000157388
54 *105:45 *1414:A 3.77937e-05
55 *105:45 *1414:B 0.000243241
56 *105:45 *176:41 9.01231e-05
57 *105:45 *210:33 0.000553312
58 *105:49 *1414:B 8.54129e-05
59 *105:49 *193:20 2.98644e-05
60 *105:66 *1438:A 0.000208477
61 *105:66 *1443:B 0.000106859
62 *105:66 *134:73 0.000191226
63 *105:66 *144:14 0.00018955
64 *105:66 *183:51 2.45662e-05
65 *105:66 *193:20 0.000224109
66 *105:66 *216:48 0.000168618
67 *105:66 *218:30 0.000697938
68 *105:70 *191:30 0.000933513
69 *105:70 *223:29 0.00023155
70 *105:74 *191:30 0.000501218
71 *105:74 *223:29 0.000918897
72 *105:107 *1414:B 1.97849e-05
73 *105:107 *109:30 0.000334283
74 *105:107 *216:48 0.000130064
75 *105:107 *218:30 0.000265251
76 *105:130 *1442:C 0.000455896
77 *105:130 *1474:A 0.000242203
78 *105:130 *130:12 0.000116578
79 *105:130 *168:55 0.000173328
80 *1333:B1 *105:130 1.79483e-05
81 *1385:A2 *105:20 4.66108e-05
82 *1454:B1 *105:70 0.000523623
83 *1495:D *1353:A 0.000392347
84 *1495:D *1365:B 0.000222487
85 *1499:D *1365:B 7.12809e-05
86 *1502:RESET_B *105:66 0.000194143
87 *1502:RESET_B *105:107 0.000423099
88 *1509:RESET_B *105:130 0.00178647
89 *1513:D *1383:B 2.307e-05
90 *1513:D *105:20 0.000235752
91 *1517:D *1365:B 0.000187064
92 *1528:A *105:20 9.66667e-05
93 *87:24 *105:20 0.000233901
94 *89:16 *105:130 8.77376e-05
95 *94:16 *105:130 0.000642974
96 *95:36 *1362:B 0
97 *95:36 *105:45 0
98 *95:36 *105:49 0.000292919
99 *95:36 *105:66 0.000155119
*RES
1 *1352:X *105:20 17.1951 
2 *105:20 *1362:B 22.8475 
3 *105:20 *105:45 10.0925 
4 *105:45 *105:49 5.675 
5 *105:49 *1436:A 3.6 
6 *105:49 *105:66 17.005 
7 *105:66 *105:70 10.73 
8 *105:70 *105:74 9.09 
9 *105:74 *1367:A 1.6 
10 *105:74 *1446:A 5.17 
11 *105:70 *1383:B 8.975 
12 *105:66 *105:107 10.415 
13 *105:107 *1358:B 19.61 
14 *105:107 *105:130 28.84 
15 *105:130 *1365:B 11.555 
16 *105:130 *1353:A 7.585 
17 *105:45 *1429:A 3.01 
*END

*D_NET *106 0.0158513
*CONN
*I *1380:B1 I *D sky130_fd_sc_hd__a211oi_2
*I *1354:A I *D sky130_fd_sc_hd__clkbuf_4
*I *1353:Y O *D sky130_fd_sc_hd__inv_2
*CAP
1 *1380:B1 0.0017507
2 *1354:A 0.000111882
3 *1353:Y 0.0011134
4 *106:29 0.00400378
5 *106:8 0.00347836
6 *1354:A *186:34 0.000322861
7 *1380:B1 *1380:A2 0.000276179
8 *1380:B1 *1518:CLK 0.000186615
9 *1380:B1 *1520:CLK 0.000166397
10 *1380:B1 *154:12 0
11 *1380:B1 *185:64 9.37473e-05
12 *1380:B1 *192:16 0
13 *1380:B1 *220:106 0
14 *106:29 *1495:CLK 8.65961e-05
15 *106:29 *146:26 0.000285759
16 *106:29 *147:10 0.000201487
17 *106:29 *186:34 7.13792e-05
18 *106:29 *186:47 2.14129e-05
19 *1380:C1 *1380:B1 0.000270409
20 *1495:D *106:8 0.00170526
21 *1495:D *106:29 7.63179e-05
22 *1495:RESET_B *106:29 8.66609e-05
23 *1516:RESET_B *1354:A 0.000322861
24 *1516:RESET_B *106:29 8.59278e-05
25 *1520:RESET_B *1380:B1 0.00113336
*RES
1 *1353:Y *106:8 19.23 
2 *106:8 *1354:A 7.53 
3 *106:8 *106:29 39.505 
4 *106:29 *1380:B1 39.27 
*END

*D_NET *107 0.0167397
*CONN
*I *1358:A I *D sky130_fd_sc_hd__and3_1
*I *231:DIODE I *D sky130_fd_sc_hd__diode_2
*I *1356:Y O *D sky130_fd_sc_hd__nand2_1
*CAP
1 *1358:A 2.09808e-05
2 *231:DIODE 5.23027e-05
3 *1356:Y 0.00139919
4 *107:46 0.00250331
5 *107:38 0.00382922
6 *231:DIODE *1450:A 0.000122801
7 *107:38 *1364:A3 2.01504e-05
8 *107:38 *1377:B 0.000869055
9 *107:38 *1390:B 1.858e-05
10 *107:38 *1390:C 8.33066e-06
11 *107:38 *1532:A 0.000677262
12 *107:38 *115:132 0.000153816
13 *107:38 *147:66 0.000328549
14 *107:38 *147:68 0.000229536
15 *107:38 *149:6 4.35348e-05
16 *107:38 *149:14 0.000202853
17 *107:38 *157:14 0.000847983
18 *107:38 *181:58 4.76051e-05
19 *107:38 *185:16 9.18451e-05
20 *107:38 *199:107 4.77757e-05
21 *107:38 *206:58 4.21973e-05
22 *107:38 *207:81 0.000671944
23 *107:38 *212:8 0.000709544
24 *107:38 *218:90 4.4745e-05
25 *107:46 *1358:C 0.000550193
26 *107:46 *1450:A 0.000660463
27 *107:46 *1457:B 0.000378497
28 *107:46 *1457:C 0.000146679
29 *107:46 *176:12 6.71882e-05
30 *107:46 *190:22 0.000361509
31 *1332:B *107:38 4.66108e-05
32 *1510:RESET_B *107:38 6.9117e-05
33 *1513:RESET_B *107:46 0.00138702
34 *87:24 *107:38 6.90254e-05
35 *87:51 *107:38 2.02316e-05
*RES
1 *1356:Y *107:38 48.8 
2 *107:38 *107:46 36.635 
3 *107:46 *231:DIODE 2.74 
4 *107:46 *1358:A 1.96 
*END

*D_NET *108 0.0114675
*CONN
*I *1358:C I *D sky130_fd_sc_hd__and3_1
*I *1357:X O *D sky130_fd_sc_hd__or2_1
*CAP
1 *1358:C 0.0032829
2 *1357:X 0.0032829
3 *1358:C *1381:A 0.00017381
4 *1358:C *1426:A 0.000441001
5 *1358:C *1428:A 0.000184034
6 *1358:C *1443:B 5.08253e-05
7 *1358:C *1530:A 0.000348529
8 *1358:C *109:30 0.00054148
9 *1358:C *117:24 0.000103959
10 *1358:C *141:14 0.001174
11 *1358:C *156:31 0
12 *1358:C *198:16 0.000187397
13 *1358:C *199:27 0
14 *1358:C *199:42 0
15 *1358:C *201:14 0.000139614
16 *1358:C *205:50 1.91597e-05
17 *1358:C *211:27 0.000273592
18 *1333:B1 *1358:C 0
19 *1509:D *1358:C 0.000134122
20 *22:20 *1358:C 6.87428e-05
21 *45:24 *1358:C 0.000511231
22 *107:46 *1358:C 0.000550193
*RES
1 *1357:X *1358:C 35.1755 
*END

*D_NET *109 0.0221448
*CONN
*I *1359:A I *D sky130_fd_sc_hd__buf_1
*I *1358:X O *D sky130_fd_sc_hd__and3_1
*CAP
1 *1359:A 0.00415529
2 *1358:X 0.00246082
3 *109:30 0.00661611
4 *1359:A *1380:A1 8.19729e-05
5 *1359:A *1390:C 0.000172802
6 *1359:A *170:76 0.00152798
7 *1359:A *182:12 0.000463653
8 *1359:A *198:18 0
9 *1359:A *203:33 0.000142327
10 *109:30 *1390:B 0.000109655
11 *109:30 *1433:A2 0
12 *109:30 *1457:B 0.000334275
13 *109:30 *1526:CLK 4.76263e-05
14 *109:30 *184:99 0.000125783
15 *109:30 *187:44 2.96627e-05
16 *109:30 *188:65 0.000470869
17 *109:30 *201:14 9.05592e-05
18 *109:30 *203:33 0.000204221
19 *1331:B *1359:A 0
20 *1332:B *109:30 6.69608e-06
21 *1358:B *109:30 0.000661253
22 *1358:C *109:30 0.00054148
23 *1505:D *1359:A 0.00032807
24 *1513:D *109:30 4.43871e-06
25 *1518:RESET_B *1359:A 0.000601907
26 *1526:RESET_B *1359:A 0.00133357
27 *31:16 *1359:A 0.000160491
28 *36:12 *1359:A 0.00027299
29 *54:30 *109:30 6.43153e-05
30 *87:24 *1359:A 0.000166247
31 *88:6 *109:30 7.32336e-05
32 *88:14 *109:30 0.000562249
33 *105:107 *109:30 0.000334283
*RES
1 *1358:X *109:30 48.53 
2 *109:30 *1359:A 44.1495 
*END

*D_NET *110 0.0179571
*CONN
*I *1362:A I *D sky130_fd_sc_hd__and3_1
*I *1360:Y O *D sky130_fd_sc_hd__nand3_1
*CAP
1 *1362:A 0.00553803
2 *1360:Y 0.00553803
3 *1362:A *1362:C 0.00153472
4 *1362:A *1369:A 1.60158e-05
5 *1362:A *1375:A 0.000116216
6 *1362:A *1389:A 0
7 *1362:A *1390:C 0
8 *1362:A *1415:A 2.39925e-05
9 *1362:A *1426:A 0.000145225
10 *1362:A *1433:A1 0.00270956
11 *1362:A *130:12 5.02126e-06
12 *1362:A *143:18 2.69153e-05
13 *1362:A *146:26 0.000132553
14 *1362:A *147:84 8.35106e-05
15 *1362:A *188:65 1.79483e-05
16 *1362:A *194:20 2.23107e-05
17 *1362:A *210:66 0.000269107
18 *1362:A *218:72 0.000199353
19 *1362:A *219:14 7.53186e-05
20 *1362:A *220:12 0.00047681
21 *1362:A *226:16 0.000128703
22 *1331:B *1362:A 0.000274963
23 *1362:B *1362:A 4.58691e-05
24 *1387:A *1362:A 0.00010179
25 *1495:RESET_B *1362:A 2.10433e-05
26 *1504:D *1362:A 0.000303574
27 *61:24 *1362:A 0.000123533
28 *103:71 *1362:A 2.69944e-05
*RES
1 *1360:Y *1362:A 43.8826 
*END

*D_NET *111 0.00598613
*CONN
*I *1362:C I *D sky130_fd_sc_hd__and3_1
*I *1361:X O *D sky130_fd_sc_hd__a21o_1
*CAP
1 *1362:C 0.000780944
2 *1361:X 0.000780944
3 *1362:C *1387:C 0.000215269
4 *1362:C *130:12 0.000779078
5 *1362:C *143:18 9.16333e-06
6 *1362:C *194:20 0.000881707
7 *1362:C *199:62 0.00088279
8 *1362:C *215:8 2.20047e-05
9 *1362:C *215:35 9.95096e-05
10 *1362:A *1362:C 0.00153472
*RES
1 *1361:X *1362:C 34.215 
*END

*D_NET *112 0.00540401
*CONN
*I *1363:A I *D sky130_fd_sc_hd__buf_1
*I *1362:X O *D sky130_fd_sc_hd__and3_1
*CAP
1 *1363:A 0.0018707
2 *1362:X 0.0018707
3 *1363:A *1445:B 3.54721e-05
4 *1363:A *1458:A 0.00015877
5 *1363:A *1496:CLK 0.000235382
6 *1363:A *143:18 2.747e-05
7 *1363:A *210:10 0.000349059
8 *1351:A1 *1363:A 0.000220007
9 *1496:D *1363:A 0.000470529
10 *1519:RESET_B *1363:A 0.000165928
*RES
1 *1362:X *1363:A 33.495 
*END

*D_NET *113 0.0168473
*CONN
*I *1365:C I *D sky130_fd_sc_hd__and3b_1
*I *1364:X O *D sky130_fd_sc_hd__a31o_1
*CAP
1 *1365:C 0.00537748
2 *1364:X 0.00537748
3 *1365:C *1330:A 0.000444142
4 *1365:C *1364:A2 0.00063385
5 *1365:C *1400:A 0.000119278
6 *1365:C *1433:A1 0.000116265
7 *1365:C *1451:C 0.000459366
8 *1365:C *118:18 0.00044963
9 *1365:C *134:37 8.53113e-06
10 *1365:C *213:33 0.000275136
11 *1365:C *220:106 0.000447963
12 *1365:A_N *1365:C 3.99879e-05
13 *1495:RESET_B *1365:C 0
14 *47:26 *1365:C 0.000278844
15 *47:91 *1365:C 0.00277109
16 *86:10 *1365:C 4.82919e-05
*RES
1 *1364:X *1365:C 48.17 
*END

*D_NET *114 0.00415389
*CONN
*I *1366:A I *D sky130_fd_sc_hd__buf_1
*I *1365:X O *D sky130_fd_sc_hd__and3b_1
*CAP
1 *1366:A 0.00137258
2 *1365:X 0.00137258
3 *1366:A *134:14 0
4 *1366:A *134:37 0.000137895
5 *1366:A *146:26 0.000112534
6 *1366:A *191:16 0.000517397
7 *1366:A *201:14 1.04292e-05
8 *229:DIODE *1366:A 3.96153e-05
9 *1365:B *1366:A 5.53249e-06
10 *1497:D *1366:A 3.69766e-05
11 *1498:D *1366:A 4.07969e-05
12 *1517:D *1366:A 8.39181e-05
13 *32:16 *1366:A 0.000128232
14 *98:12 *1366:A 0.000295403
*RES
1 *1365:X *1366:A 31.215 
*END

*D_NET *115 0.0303223
*CONN
*I *1377:A I *D sky130_fd_sc_hd__and3_1
*I *1390:A I *D sky130_fd_sc_hd__and3_1
*I *1406:A I *D sky130_fd_sc_hd__and3_1
*I *1401:A I *D sky130_fd_sc_hd__and3_1
*I *1370:A I *D sky130_fd_sc_hd__and3_1
*I *1420:C1 I *D sky130_fd_sc_hd__o211a_1
*I *1425:A I *D sky130_fd_sc_hd__and3_1
*I *1449:B1 I *D sky130_fd_sc_hd__o211a_1
*I *1414:A I *D sky130_fd_sc_hd__and3_1
*I *1397:A I *D sky130_fd_sc_hd__and3_1
*I *1367:X O *D sky130_fd_sc_hd__buf_2
*CAP
1 *1377:A 0.000756376
2 *1390:A 0
3 *1406:A 0
4 *1401:A 0.000103262
5 *1370:A 0.00018455
6 *1420:C1 1.1665e-05
7 *1425:A 3.3955e-05
8 *1449:B1 0.000695713
9 *1414:A 8.23689e-05
10 *1397:A 0.000821649
11 *1367:X 0.000834238
12 *115:132 0.0010813
13 *115:101 0.001284
14 *115:76 0.00118163
15 *115:34 0.00132506
16 *115:30 0.00160747
17 *115:28 0.000893938
18 *115:22 0.000931229
19 *115:10 0.000623764
20 *115:8 0.00139474
21 *1370:A *1370:B 1.21256e-05
22 *1370:A *1370:C 0.000325642
23 *1377:A *1377:B 0.000878344
24 *1377:A *1390:C 7.91651e-05
25 *1377:A *1391:A 1.92187e-05
26 *1377:A *1448:B1 8.35157e-05
27 *1377:A *174:36 0.000178883
28 *1377:A *200:30 0.000452191
29 *1397:A *1398:A 0.000214211
30 *1397:A *129:20 0.000116334
31 *1401:A *1401:C 0.000417945
32 *1401:A *1494:A 0.000201508
33 *1414:A *1414:B 5.21046e-05
34 *1414:A *167:18 9.50342e-06
35 *1425:A *1482:A 9.53428e-06
36 *1449:B1 *1336:A2 1.42807e-05
37 *1449:B1 *1348:D 0
38 *1449:B1 *1369:A 0.000417392
39 *1449:B1 *1384:A 0
40 *1449:B1 *1449:A2 0.000132174
41 *1449:B1 *1449:C1 7.76034e-05
42 *115:8 *1446:C 5.28255e-05
43 *115:8 *214:14 8.49205e-05
44 *115:8 *223:29 0.000251685
45 *115:10 *1350:A 1.37864e-05
46 *115:10 *179:10 0.0003712
47 *115:10 *214:38 9.88783e-05
48 *115:10 *224:59 0.000591715
49 *115:22 *1406:C 1.43664e-05
50 *115:22 *1423:B 0.000248898
51 *115:22 *1431:A 0.000789394
52 *115:22 *179:10 0.000155593
53 *115:22 *224:59 0.000157267
54 *115:22 *225:39 0.000508205
55 *115:28 *1398:A 0.000471977
56 *115:28 *1420:B1 9.57985e-05
57 *115:28 *1425:B 0.000636866
58 *115:28 *1482:A 0.000153627
59 *115:28 *128:22 8.40269e-05
60 *115:30 *1336:A2 0.000293598
61 *115:30 *1482:A 9.92625e-05
62 *115:30 *1483:A 4.60123e-05
63 *115:30 *181:31 4.60061e-05
64 *115:34 *1336:A2 8.49205e-05
65 *115:34 *196:22 0.000174364
66 *115:76 *1352:B1_N 1.27695e-05
67 *115:76 *1420:B1 1.33184e-05
68 *115:76 *1425:B 0.000673891
69 *115:76 *128:22 0.000137188
70 *115:101 *1331:A 8.53113e-06
71 *115:101 *1352:B1_N 3.42932e-05
72 *115:101 *1370:C 0.000501766
73 *115:101 *1374:B 0.000352161
74 *115:101 *1418:B 0.000209054
75 *115:101 *1420:A1 0.000762123
76 *115:101 *1425:B 1.11712e-05
77 *115:101 *1440:A1 0.000122325
78 *115:101 *207:122 0.000769312
79 *115:132 *1350:A 0.00022569
80 *115:132 *1377:B 0.000409331
81 *115:132 *1390:C 0.000228871
82 *115:132 *224:59 0.000370945
83 *1334:B *1397:A 0.000415929
84 *1337:A *115:132 2.86895e-05
85 *1446:A *115:8 0.000146359
86 *1526:RESET_B *115:101 0
87 *49:16 *115:22 0.000154986
88 *51:8 *115:101 0.000102637
89 *52:16 *1401:A 0.000176859
90 *88:66 *115:22 0.000153816
91 *95:36 *1397:A 9.05377e-05
92 *95:36 *1414:A 0.000103135
93 *103:71 *1449:B1 0
94 *104:16 *115:101 0.000286629
95 *105:20 *1420:C1 4.66108e-05
96 *105:20 *115:76 0.000442815
97 *105:20 *115:101 7.79767e-06
98 *105:45 *1397:A 6.73751e-05
99 *105:45 *1414:A 3.77937e-05
100 *107:38 *115:132 0.000153816
*RES
1 *1367:X *115:8 13.71 
2 *115:8 *115:10 7.245 
3 *115:10 *115:22 19.17 
4 *115:22 *115:28 10.92 
5 *115:28 *115:30 8.385 
6 *115:30 *115:34 8.66 
7 *115:34 *1397:A 17.67 
8 *115:34 *1414:A 6 
9 *115:30 *1449:B1 18.2 
10 *115:28 *1425:A 2.215 
11 *115:22 *115:76 6.93 
12 *115:76 *1420:C1 2.05 
13 *115:76 *115:101 33.915 
14 *115:101 *1370:A 7.785 
15 *115:101 *1401:A 8.19 
16 *115:10 *1406:A 3.6 
17 *115:8 *115:132 11.105 
18 *115:132 *1390:A 1.6 
19 *115:132 *1377:A 18.085 
*END

*D_NET *116 0.00658664
*CONN
*I *1370:B I *D sky130_fd_sc_hd__and3_1
*I *1368:Y O *D sky130_fd_sc_hd__nand2_1
*CAP
1 *1370:B 0.00180596
2 *1368:Y 0.00180596
3 *1370:B *1370:C 0.000933368
4 *1370:B *1392:A2 4.16262e-05
5 *1370:B *1392:B1 2.42473e-05
6 *1370:B *1402:A 0.000679272
7 *1370:B *118:10 0.000142145
8 *1370:B *129:16 0.000719804
9 *1370:B *133:8 0.000422137
10 *1370:A *1370:B 1.21256e-05
*RES
1 *1368:Y *1370:B 37.245 
*END

*D_NET *117 0.0178891
*CONN
*I *1370:C I *D sky130_fd_sc_hd__and3_1
*I *1369:X O *D sky130_fd_sc_hd__or2_1
*CAP
1 *1370:C 0.00117622
2 *1369:X 0.00304347
3 *117:24 0.00421969
4 *1370:C *1402:A 0.00059209
5 *1370:C *1464:A 2.00031e-05
6 *1370:C *118:10 0.000312938
7 *1370:C *154:12 0.00216156
8 *1370:C *220:106 0.00054701
9 *117:24 *1390:C 0
10 *117:24 *1426:A 0.00038882
11 *117:24 *1531:A 0.000316807
12 *117:24 *1534:A 2.85623e-05
13 *117:24 *142:28 1.5903e-05
14 *117:24 *159:26 0.000100174
15 *117:24 *170:64 0.000228244
16 *117:24 *179:110 5.96064e-05
17 *117:24 *182:66 0.000681639
18 *117:24 *185:6 0.000546765
19 *117:24 *185:12 4.66108e-05
20 *117:24 *185:62 0.00117205
21 *117:24 *187:34 0.000190715
22 *117:24 *208:41 0.000101177
23 *1358:C *117:24 0.000103959
24 *1370:A *1370:C 0.000325642
25 *1370:B *1370:C 0.000933368
26 *1526:RESET_B *1370:C 0
27 *80:16 *117:24 7.42598e-05
28 *115:101 *1370:C 0.000501766
*RES
1 *1369:X *117:24 35.3257 
2 *117:24 *1370:C 43.995 
*END

*D_NET *118 0.0232134
*CONN
*I *1371:A I *D sky130_fd_sc_hd__buf_1
*I *1370:X O *D sky130_fd_sc_hd__and3_1
*CAP
1 *1371:A 0.000102663
2 *1370:X 0.000971461
3 *118:20 0.00132059
4 *118:18 0.00243731
5 *118:10 0.00219085
6 *118:10 *1402:A 0.00176801
7 *118:10 *1423:A 0.000230094
8 *118:10 *220:106 6.02005e-05
9 *118:18 *1432:D 0.000132532
10 *118:18 *147:10 0
11 *118:18 *216:20 0.000158297
12 *118:18 *220:106 0.0019738
13 *118:18 *221:52 0
14 *118:20 *1341:A1 5.08284e-05
15 *118:20 *1341:A2 0.000691458
16 *118:20 *1416:B 0.00290737
17 *118:20 *1527:A 0.000248059
18 *118:20 *192:6 0.00203752
19 *1365:C *118:18 0.00044963
20 *1370:B *118:10 0.000142145
21 *1370:C *118:10 0.000312938
22 *26:10 *118:10 0.00227396
23 *26:10 *118:18 0.000707427
24 *52:16 *118:10 4.96327e-05
25 *54:16 *118:20 0.00186705
26 *54:30 *1371:A 5.85587e-05
27 *55:10 *1371:A 7.10077e-05
*RES
1 *1370:X *118:10 38.8725 
2 *118:10 *118:18 36.5375 
3 *118:18 *118:20 49.095 
4 *118:20 *1371:A 7.745 
*END

*D_NET *119 0.00847765
*CONN
*I *1374:B I *D sky130_fd_sc_hd__nor3_1
*I *1372:Y O *D sky130_fd_sc_hd__a21oi_1
*CAP
1 *1374:B 0.00175704
2 *1372:Y 0.00175704
3 *1374:B *1392:B1 0
4 *1374:B *1420:A1 0.000758103
5 *1374:B *1450:B 3.96737e-05
6 *1374:B *1482:A 0.00015896
7 *1374:B *1527:A 0.00015532
8 *1374:B *129:10 0.000511406
9 *1374:B *191:66 0.00127441
10 *1374:B *207:122 0.000106348
11 *37:24 *1374:B 0.000234088
12 *42:20 *1374:B 6.71882e-05
13 *43:14 *1374:B 9.02259e-05
14 *95:98 *1374:B 0.000680831
15 *95:109 *1374:B 0.000534862
16 *115:101 *1374:B 0.000352161
*RES
1 *1372:Y *1374:B 45.09 
*END

*D_NET *120 0.0155043
*CONN
*I *1375:B I *D sky130_fd_sc_hd__or2_1
*I *1376:B I *D sky130_fd_sc_hd__nand2_1
*I *1374:C I *D sky130_fd_sc_hd__nor3_1
*I *1373:X O *D sky130_fd_sc_hd__and3_1
*CAP
1 *1375:B 0.000829201
2 *1376:B 2.89741e-05
3 *1374:C 0.00010143
4 *1373:X 0.00150106
5 *120:20 0.000448594
6 *120:18 0.00264845
7 *1374:C *129:10 0.000354313
8 *1375:B *1339:A1 1.92979e-05
9 *1375:B *1426:A 0.000488392
10 *1375:B *141:14 0.000125954
11 *1375:B *204:53 0.000565798
12 *1375:B *216:20 8.23457e-05
13 *1375:B *224:14 0.000410785
14 *120:18 *1527:A 0.000109931
15 *120:18 *129:10 0.0015107
16 *120:18 *208:61 8.40213e-05
17 *120:18 *219:10 3.85204e-05
18 *120:18 *221:52 0.000111302
19 *120:20 *129:10 0.00106507
20 *1339:B1 *1375:B 9.45113e-05
21 *1344:B *1374:C 0.000354313
22 *1344:B *120:20 0.000305419
23 *1373:C *120:18 0.000531847
24 *1386:D *120:18 0.000202088
25 *1386:D *120:20 0.000767617
26 *1498:D *1375:B 2.91013e-05
27 *1511:D *120:18 0.00029086
28 *53:18 *1375:B 0.00113189
29 *74:20 *1376:B 2.49909e-05
30 *80:16 *1375:B 0.000548619
31 *95:109 *120:18 0.000681285
32 *103:24 *1375:B 1.7635e-05
*RES
1 *1373:X *120:18 44.23 
2 *120:18 *120:20 12.855 
3 *120:20 *1374:C 7.785 
4 *120:20 *1376:B 4.05 
5 *120:18 *1375:B 28.4172 
*END

*D_NET *121 0.00774354
*CONN
*I *1377:B I *D sky130_fd_sc_hd__and3_1
*I *1375:X O *D sky130_fd_sc_hd__or2_1
*CAP
1 *1377:B 0.00174934
2 *1375:X 0.00174934
3 *1377:B *1390:B 0.000512447
4 *1377:B *200:30 0.000524831
5 *1377:A *1377:B 0.000878344
6 *53:18 *1377:B 0.000336068
7 *76:32 *1377:B 8.35157e-05
8 *80:16 *1377:B 2.81301e-05
9 *85:10 *1377:B 0.000300856
10 *87:51 *1377:B 0.000302277
11 *107:38 *1377:B 0.000869055
12 *115:132 *1377:B 0.000409331
*RES
1 *1375:X *1377:B 43.905 
*END

*D_NET *122 0.00645751
*CONN
*I *1377:C I *D sky130_fd_sc_hd__and3_1
*I *1380:A2 I *D sky130_fd_sc_hd__a211oi_2
*I *1376:Y O *D sky130_fd_sc_hd__nand2_1
*CAP
1 *1377:C 0.000100803
2 *1380:A2 0.000911019
3 *1376:Y 0.000803046
4 *122:10 0.00181487
5 *1377:C *147:16 0.000335334
6 *1377:C *200:30 5.73568e-06
7 *1377:C *207:110 5.79169e-06
8 *1377:C *221:52 0.000315533
9 *1380:A2 *220:106 0.000263595
10 *122:10 *147:16 0.000254764
11 *122:10 *207:110 0.000130775
12 *1380:B1 *1380:A2 0.000276179
13 *1380:C1 *1380:A2 0.000270409
14 *74:20 *122:10 0.000969655
*RES
1 *1376:Y *122:10 15.84 
2 *122:10 *1380:A2 17.865 
3 *122:10 *1377:C 7.695 
*END

*D_NET *123 0.00553832
*CONN
*I *1378:A I *D sky130_fd_sc_hd__buf_1
*I *1377:X O *D sky130_fd_sc_hd__and3_1
*CAP
1 *1378:A 0.00221327
2 *1377:X 0.00221327
3 *1378:A *1380:A1 7.53323e-05
4 *1378:A *1466:A 0
5 *1378:A *1537:A 0
6 *1378:A *1540:A 2.75145e-05
7 *1378:A *200:30 0.000450032
8 seg[0] *1378:A 0
9 *43:14 *1378:A 0.000399518
10 *44:10 *1378:A 0.000159387
*RES
1 *1377:X *1378:A 42.87 
*END

*D_NET *124 0.01872
*CONN
*I *1380:A1 I *D sky130_fd_sc_hd__a211oi_2
*I *1379:Y O *D sky130_fd_sc_hd__inv_2
*CAP
1 *1380:A1 0.00647448
2 *1379:Y 0.00647448
3 *1380:A1 *1383:C 0.000444458
4 *1380:A1 *1439:B 0.000471241
5 *1380:A1 *1446:C 0.000887934
6 *1380:A1 *1537:A 0.000100267
7 *1380:A1 *136:8 7.97197e-06
8 *1380:A1 *164:12 6.63219e-06
9 *1380:A1 *174:36 0.000494044
10 *1380:A1 *200:30 2.7741e-06
11 *1380:A1 *209:39 0
12 *1334:A *1380:A1 9.49631e-05
13 *1359:A *1380:A1 8.19729e-05
14 *1378:A *1380:A1 7.53323e-05
15 *1526:RESET_B *1380:A1 0.00128874
16 *1528:A *1380:A1 0.00174832
17 *103:24 *1380:A1 6.64094e-05
*RES
1 *1379:Y *1380:A1 24.1317 
*END

*D_NET *125 0.00596703
*CONN
*I *1383:A I *D sky130_fd_sc_hd__and3_1
*I *1381:X O *D sky130_fd_sc_hd__or2_1
*CAP
1 *1383:A 0.00179057
2 *1381:X 0.00179057
3 *1383:A *1439:B 0.000101188
4 *1383:A *1443:B 1.79483e-05
5 *1383:A *1474:A 4.66108e-05
6 *1383:A *180:80 0.000144732
7 *1383:A *210:60 1.16664e-05
8 *1383:A *215:35 0.000604259
9 *1383:A *223:29 0.000495441
10 *1381:B *1383:A 4.66108e-05
11 *1383:B *1383:A 5.38986e-06
12 *1454:B1 *1383:A 2.39856e-05
13 *1513:D *1383:A 0.000150231
14 *44:12 *1383:A 0.000119866
15 *89:16 *1383:A 0.000617955
*RES
1 *1381:X *1383:A 40.915 
*END

*D_NET *126 0.0137578
*CONN
*I *1383:C I *D sky130_fd_sc_hd__and3_1
*I *1382:Y O *D sky130_fd_sc_hd__nand2_1
*CAP
1 *1383:C 0.00457304
2 *1382:Y 0.00457304
3 *1383:C *1433:A1 0.000225704
4 *1383:C *1439:B 0.000106706
5 *1383:C *1494:A 0.000194921
6 *1383:C *1521:CLK 0.000190403
7 *1383:C *138:12 1.88656e-05
8 *1383:C *174:36 0.00127733
9 *1383:C *183:77 0.00020951
10 *1383:C *191:30 5.19004e-05
11 *1383:C *224:59 0.000169048
12 *1383:C *224:65 0.000104111
13 *1383:C *225:39 0.000109387
14 *1380:A1 *1383:C 0.000444458
15 *1383:B *1383:C 1.61831e-05
16 *1521:D *1383:C 5.5017e-05
17 *1521:RESET_B *1383:C 0.000622992
18 *1525:D *1383:C 1.87328e-05
19 *1526:RESET_B *1383:C 4.92906e-05
20 *23:16 *1383:C 0.00031491
21 *103:24 *1383:C 8.63304e-05
22 *104:16 *1383:C 0.000345929
*RES
1 *1382:Y *1383:C 36.1784 
*END

*D_NET *127 0.00727326
*CONN
*I *1384:A I *D sky130_fd_sc_hd__buf_1
*I *1383:X O *D sky130_fd_sc_hd__and3_1
*CAP
1 *1384:A 0.0014956
2 *1383:X 0.0014956
3 *1384:A *1336:A2 0
4 *1384:A *1429:C 5.05774e-06
5 *1384:A *1433:A2 0.000106584
6 *1384:A *1439:B 0.000160314
7 *1384:A *1450:B 0.00149041
8 *1384:A *129:30 0.000198252
9 *1384:A *168:30 7.20467e-05
10 *1384:A *220:12 0.000551724
11 *1331:B *1384:A 0.000799781
12 *1335:A *1384:A 0.000511648
13 *1449:B1 *1384:A 0
14 *1502:D *1384:A 0.000160314
15 *1513:D *1384:A 0
16 *103:71 *1384:A 0.000225915
*RES
1 *1383:X *1384:A 43.605 
*END

*D_NET *128 0.00829204
*CONN
*I *1387:B I *D sky130_fd_sc_hd__nor3_1
*I *1385:Y O *D sky130_fd_sc_hd__a21oi_1
*CAP
1 *1387:B 0
2 *1385:Y 0.0014313
3 *128:22 0.0014313
4 *128:22 *1342:B 0.000180682
5 *128:22 *1398:A 0.00015639
6 *128:22 *1420:B1 2.79951e-05
7 *128:22 *1431:A 0.000478756
8 *128:22 *1446:B 0.00179369
9 *128:22 *139:47 0.000628536
10 *128:22 *156:10 0
11 *128:22 *170:26 0.000520178
12 *128:22 *201:45 0.000710421
13 *36:12 *128:22 0.000711586
14 *115:28 *128:22 8.40269e-05
15 *115:76 *128:22 0.000137188
*RES
1 *1385:Y *128:22 49.695 
2 *128:22 *1387:B 1.6 
*END

*D_NET *129 0.0276044
*CONN
*I *1392:A2 I *D sky130_fd_sc_hd__a21oi_1
*I *1387:C I *D sky130_fd_sc_hd__nor3_1
*I *1393:C I *D sky130_fd_sc_hd__and3_2
*I *1388:B I *D sky130_fd_sc_hd__or2_1
*I *1409:D I *D sky130_fd_sc_hd__and4_1
*I *1389:B I *D sky130_fd_sc_hd__nand2_1
*I *1386:X O *D sky130_fd_sc_hd__and4_2
*CAP
1 *1392:A2 5.31963e-05
2 *1387:C 0.00021251
3 *1393:C 0.000816463
4 *1388:B 0
5 *1409:D 0
6 *1389:B 0.000205176
7 *1386:X 1.83028e-05
8 *129:30 0.000490087
9 *129:24 0.000419831
10 *129:20 0.00106551
11 *129:16 0.00171421
12 *129:12 0.00144078
13 *129:10 0.00148404
14 *129:8 0.00150234
15 *1387:C *1342:B 0.000122331
16 *1387:C *130:12 9.14049e-05
17 *1387:C *215:35 0.000497909
18 *1389:B *1389:A 0
19 *1389:B *1409:B 7.87077e-05
20 *1389:B *143:18 4.77807e-05
21 *1389:B *178:18 6.00116e-05
22 *1389:B *200:97 0
23 *1392:A2 *1392:B1 4.66108e-05
24 *1393:C *1393:A 3.99407e-05
25 *1393:C *1393:B 0.000151412
26 *1393:C *1397:B 0
27 *1393:C *134:14 5.83121e-06
28 *1393:C *134:73 0.00030658
29 *1393:C *146:26 0.000182617
30 *1393:C *166:10 0.000150318
31 *1393:C *176:41 0.000395485
32 *1393:C *196:22 0.000668407
33 *129:8 *1394:C 4.66108e-05
34 *129:10 *1343:B 7.02113e-05
35 *129:10 *1392:B1 1.71013e-05
36 *129:10 *1440:A2 0.000717049
37 *129:10 *1527:A 0.000273231
38 *129:10 *142:28 0.000515292
39 *129:10 *165:26 0.000124496
40 *129:10 *216:20 0.000135278
41 *129:10 *220:89 0.00017734
42 *129:10 *222:18 7.49422e-05
43 *129:16 *1352:B1_N 0.000505935
44 *129:16 *1398:A 0.00254256
45 *129:20 *1398:A 0.00033764
46 *129:24 *1393:B 8.48192e-05
47 *129:24 *200:97 4.43871e-06
48 *129:30 *146:26 1.17036e-05
49 *129:30 *178:18 5.98004e-06
50 *129:30 *200:97 0
51 *1334:A *129:16 0.00185532
52 *1334:B *129:16 0.000355637
53 *1334:B *129:20 5.83121e-06
54 *1344:B *129:10 8.85336e-05
55 *1362:C *1387:C 0.000215269
56 *1370:B *1392:A2 4.16262e-05
57 *1370:B *129:16 0.000719804
58 *1374:B *129:10 0.000511406
59 *1374:C *129:10 0.000354313
60 *1384:A *129:30 0.000198252
61 *1386:D *129:10 7.67762e-05
62 *1397:A *129:20 0.000116334
63 *1511:D *129:10 0.000644244
64 *22:20 *129:8 1.56428e-05
65 *36:12 *1387:C 0.000120655
66 *37:24 *129:10 0.000232786
67 *95:83 *129:16 0.000163339
68 *95:98 *129:16 0.000620628
69 *95:109 *129:10 0.000380726
70 *98:14 *129:24 0
71 *98:14 *129:30 0.000357137
72 *100:14 *129:10 4.1992e-05
73 *120:18 *129:10 0.0015107
74 *120:20 *129:10 0.00106507
*RES
1 *1386:X *129:8 4.05 
2 *129:8 *129:10 49.065 
3 *129:10 *129:12 2 
4 *129:12 *129:16 41.775 
5 *129:16 *129:20 5.21 
6 *129:20 *129:24 4.145 
7 *129:24 *129:30 8.27 
8 *129:30 *1389:B 7.725 
9 *129:30 *1409:D 3.6 
10 *129:24 *1388:B 1.6 
11 *129:20 *1393:C 22.44 
12 *129:16 *1387:C 12.71 
13 *129:12 *1392:A2 2.74 
*END

*D_NET *130 0.0136894
*CONN
*I *1390:B I *D sky130_fd_sc_hd__and3_1
*I *1388:X O *D sky130_fd_sc_hd__or2_1
*CAP
1 *1390:B 0.00308825
2 *1388:X 0.000963359
3 *130:12 0.00405161
4 *130:12 *1474:A 5.30022e-05
5 *130:12 *194:20 0
6 *130:12 *215:35 2.05661e-05
7 *1332:B *1390:B 0.000274065
8 *1362:A *130:12 5.02126e-06
9 *1362:C *130:12 0.000779078
10 *1377:B *1390:B 0.000512447
11 *1387:C *130:12 9.14049e-05
12 *1507:RESET_B *130:12 0.000528093
13 *1516:D *1390:B 0.000236661
14 *54:30 *1390:B 6.70983e-05
15 *88:6 *1390:B 2.20608e-05
16 *88:14 *1390:B 0.000128446
17 *89:16 *130:12 0.00227548
18 *94:16 *130:12 0.000189897
19 *95:12 *130:12 0.000158072
20 *105:130 *130:12 0.000116578
21 *107:38 *1390:B 1.858e-05
22 *109:30 *1390:B 0.000109655
*RES
1 *1388:X *130:12 35.75 
2 *130:12 *1390:B 37.825 
*END

*D_NET *131 0.0181735
*CONN
*I *1390:C I *D sky130_fd_sc_hd__and3_1
*I *1389:Y O *D sky130_fd_sc_hd__nand2_1
*CAP
1 *1390:C 0.00671663
2 *1389:Y 0.00671663
3 *1390:C *1336:A1 0.000153502
4 *1390:C *1420:B1 0.000131507
5 *1390:C *1433:A1 0
6 *1390:C *1508:CLK 2.36272e-05
7 *1390:C *157:14 7.87594e-05
8 *1390:C *182:12 5.49584e-05
9 *1390:C *182:66 0
10 *1390:C *185:16 4.1866e-05
11 *1390:C *217:10 0.000263857
12 *1334:A *1390:C 0.000245189
13 *1346:D *1390:C 0
14 *1359:A *1390:C 0.000172802
15 *1362:A *1390:C 0
16 *1377:A *1390:C 7.91651e-05
17 *1519:RESET_B *1390:C 0.000476266
18 *1524:D *1390:C 1.79483e-05
19 *1525:RESET_B *1390:C 0.000119945
20 *23:16 *1390:C 0.000283551
21 *39:22 *1390:C 0.000633174
22 *87:24 *1390:C 0.000176741
23 *104:16 *1390:C 0.0015502
24 *107:38 *1390:C 8.33066e-06
25 *115:132 *1390:C 0.000228871
26 *117:24 *1390:C 0
*RES
1 *1389:Y *1390:C 26.4058 
*END

*D_NET *132 0.00536856
*CONN
*I *1391:A I *D sky130_fd_sc_hd__clkbuf_1
*I *1390:X O *D sky130_fd_sc_hd__and3_1
*CAP
1 *1391:A 0.000855036
2 *1390:X 0.000855036
3 *1391:A *1347:D 0.000191335
4 *1391:A *1452:A2 0.000425177
5 *1391:A *138:12 0.000847639
6 *1391:A *142:28 0.000863867
7 *1391:A *174:36 0.000661914
8 *1391:A *179:110 4.36573e-06
9 *1391:A *180:31 6.51286e-05
10 *1377:A *1391:A 1.92187e-05
11 *1448:A2 *1391:A 6.33103e-05
12 *57:16 *1391:A 0.000516535
*RES
1 *1390:X *1391:A 32.925 
*END

*D_NET *133 0.00853238
*CONN
*I *1394:B I *D sky130_fd_sc_hd__nor3_1
*I *1392:Y O *D sky130_fd_sc_hd__a21oi_1
*CAP
1 *1394:B 4.36788e-05
2 *1392:Y 0.000122952
3 *133:10 0.00266488
4 *133:8 0.00274415
5 *1394:B *1394:C 3.45679e-05
6 *133:8 *1392:B1 4.6368e-06
7 *133:8 *200:30 6.88183e-05
8 *133:10 *1364:A2 5.50105e-05
9 *133:10 *1364:A3 0.000174867
10 *133:10 *1411:A1 0
11 *133:10 *1422:C 7.14241e-05
12 *133:10 *1487:A 0.000257883
13 *133:10 *179:39 5.20157e-05
14 *133:10 *181:151 0.000130589
15 *133:10 *181:162 0.000166166
16 *133:10 *200:30 0
17 *133:10 *207:81 0.000169465
18 *133:10 *208:69 0.000132456
19 *133:10 *209:72 0.000731601
20 *1370:B *133:8 0.000422137
21 *1394:A *133:10 0
22 *1518:D *133:10 0
23 *22:20 *1394:B 8.65961e-05
24 *47:95 *133:10 0
25 *76:32 *133:10 0
26 *76:50 *133:10 0
27 *84:14 *133:10 0.000398481
*RES
1 *1392:Y *133:8 7.5 
2 *133:8 *133:10 49.065 
3 *133:10 *1394:B 4.74 
*END

*D_NET *134 0.028734
*CONN
*I *1399:A2 I *D sky130_fd_sc_hd__a21o_1
*I *1395:B I *D sky130_fd_sc_hd__or2_1
*I *1394:C I *D sky130_fd_sc_hd__nor3_1
*I *1400:C I *D sky130_fd_sc_hd__nand3_2
*I *1396:B I *D sky130_fd_sc_hd__nand2_1
*I *1393:X O *D sky130_fd_sc_hd__and3_2
*CAP
1 *1399:A2 0.000294576
2 *1395:B 0.000232453
3 *1394:C 0.000799112
4 *1400:C 0
5 *1396:B 0.000390615
6 *1393:X 0
7 *134:73 0.00133233
8 *134:47 0.00135417
9 *134:37 0.00187899
10 *134:14 0.00289687
11 *134:4 0.00198762
12 *1394:C *1386:A 0.000441992
13 *1394:C *1386:B 0.00046451
14 *1395:B *1336:B1 0.000120325
15 *1395:B *1395:A 0.000266342
16 *1399:A2 *1395:A 0.00034915
17 *1399:A2 *1399:A1 0.000483154
18 *1399:A2 *1420:B1 6.62684e-05
19 *1399:A2 *202:57 3.09233e-05
20 *1399:A2 *222:18 0.00015639
21 *134:14 *201:14 0.000806259
22 *134:37 *1400:A 3.09233e-05
23 *134:37 *151:12 0
24 *134:37 *153:12 0
25 *134:37 *187:12 7.30505e-05
26 *134:47 *1386:A 0.000122331
27 *134:47 *1400:A 0.001899
28 *134:47 *213:33 0.000967139
29 *134:73 *1336:A2 0.00038006
30 *134:73 *1393:A 2.89963e-05
31 *134:73 *1393:B 0.000200832
32 *134:73 *1420:B1 9.57985e-05
33 *134:73 *1430:A 0.000191343
34 *134:73 *144:14 0.000246397
35 *134:73 *183:18 0.00102399
36 *134:73 *183:51 8.41307e-05
37 *230:DIODE *1394:C 0.000201003
38 *1365:B *134:37 2.90986e-05
39 *1365:C *134:37 8.53113e-06
40 *1366:A *134:14 0
41 *1366:A *134:37 0.000137895
42 *1386:D *1394:C 0.0001947
43 *1393:C *134:14 5.83121e-06
44 *1393:C *134:73 0.00030658
45 *1394:B *1394:C 3.45679e-05
46 *1495:D *134:37 0.00139122
47 *1499:D *134:14 0.000325525
48 *1499:D *134:37 0.000194635
49 *1512:RESET_B *134:47 0.000158536
50 *1514:RESET_B *1399:A2 0.000250236
51 *1521:D *1395:B 3.60738e-06
52 *1521:D *1399:A2 0.000369868
53 *1522:D *1395:B 0.000254718
54 *20:12 *134:14 0.00296122
55 *20:12 *134:37 0
56 *22:20 *1394:C 0.000206323
57 *22:20 *134:47 0.000194139
58 *32:16 *134:73 0.000501448
59 *45:24 *134:14 0.000484297
60 *47:28 *1395:B 4.87939e-05
61 *47:45 *134:73 1.43622e-05
62 *49:16 *1399:A2 0.000110167
63 *49:16 *134:73 0.000225285
64 *57:16 *1395:B 8.7152e-06
65 *94:16 *134:73 0.000131052
66 *95:113 *1394:C 4.77719e-05
67 *98:12 *134:14 0
68 *105:66 *134:73 0.000191226
69 *129:8 *1394:C 4.66108e-05
*RES
1 *1393:X *134:4 1.6 
2 *134:4 *134:14 39.94 
3 *134:14 *1396:B 7.225 
4 *134:14 *134:37 33.335 
5 *134:37 *134:47 21.3 
6 *134:47 *1400:C 1.6 
7 *134:47 *1394:C 19.33 
8 *134:4 *134:73 24.06 
9 *134:73 *1395:B 12.08 
10 *134:73 *1399:A2 15.77 
*END

*D_NET *135 0.00620872
*CONN
*I *1397:B I *D sky130_fd_sc_hd__and3_1
*I *1395:X O *D sky130_fd_sc_hd__or2_1
*CAP
1 *1397:B 0.0016184
2 *1395:X 0.0016184
3 *1397:B *1398:A 0.000456115
4 *1397:B *1429:B 0.000469095
5 *1397:B *1429:C 0.000145484
6 *1397:B *1438:A 0.000736308
7 *1397:B *146:26 0.000120674
8 *1397:B *176:41 8.50199e-05
9 *1335:A *1397:B 6.56698e-05
10 *1393:C *1397:B 0
11 *1429:A *1397:B 0.000113637
12 *98:14 *1397:B 0.000622527
13 *105:45 *1397:B 0.000157388
*RES
1 *1395:X *1397:B 37.455 
*END

*D_NET *136 0.0086548
*CONN
*I *1397:C I *D sky130_fd_sc_hd__and3_1
*I *1396:Y O *D sky130_fd_sc_hd__nand2_1
*CAP
1 *1397:C 0.000429375
2 *1396:Y 0.00186768
3 *136:8 0.00229705
4 *1397:C *1398:A 1.95861e-05
5 *136:8 *1341:B1 0.000138372
6 *136:8 *1345:A 4.45754e-05
7 *136:8 *1345:B 0.00013642
8 *136:8 *1345:C 0.000163351
9 *136:8 *1396:A 0.000263736
10 *136:8 *1446:C 0
11 *136:8 *164:12 0
12 *136:8 *219:20 0.00328668
13 *1380:A1 *136:8 7.97197e-06
*RES
1 *1396:Y *136:8 49.35 
2 *136:8 *1397:C 8.0925 
*END

*D_NET *137 0.0103057
*CONN
*I *1398:A I *D sky130_fd_sc_hd__buf_1
*I *1397:X O *D sky130_fd_sc_hd__and3_1
*CAP
1 *1398:A 0.00262586
2 *1397:X 0.00262586
3 *1398:A *1420:B1 0.000639527
4 *1398:A *1450:B 0.000215999
5 *1337:B *1398:A 0
6 *1397:A *1398:A 0.000214211
7 *1397:B *1398:A 0.000456115
8 *1397:C *1398:A 1.95861e-05
9 *115:28 *1398:A 0.000471977
10 *128:22 *1398:A 0.00015639
11 *129:16 *1398:A 0.00254256
12 *129:20 *1398:A 0.00033764
*RES
1 *1397:X *1398:A 49.86 
*END

*D_NET *138 0.0126733
*CONN
*I *1401:B I *D sky130_fd_sc_hd__and3_1
*I *1399:X O *D sky130_fd_sc_hd__a21o_1
*CAP
1 *1401:B 0.00184533
2 *1399:X 0.00130131
3 *138:12 0.00314665
4 *1401:B *200:50 0.000716016
5 *138:12 *1349:A1 0
6 *138:12 *1352:B1_N 0.000154954
7 *138:12 *1399:B1 4.82919e-05
8 *138:12 *1440:A1 0.000218368
9 *138:12 *1452:A2 9.87627e-06
10 *138:12 *155:18 0.000812487
11 *138:12 *180:31 0.00102406
12 *138:12 *203:12 0.00146353
13 *138:12 *209:39 0.000633403
14 *138:12 *214:38 3.53405e-05
15 *1383:C *138:12 1.88656e-05
16 *1391:A *138:12 0.000847639
17 *1448:A2 *138:12 5.15794e-05
18 *104:16 *138:12 0.000345605
*RES
1 *1399:X *138:12 45.71 
2 *138:12 *1401:B 27.275 
*END

*D_NET *139 0.030089
*CONN
*I *1404:B I *D sky130_fd_sc_hd__nand2_1
*I *1405:B I *D sky130_fd_sc_hd__or2_1
*I *232:DIODE I *D sky130_fd_sc_hd__diode_2
*I *1401:C I *D sky130_fd_sc_hd__and3_1
*I *1400:Y O *D sky130_fd_sc_hd__nand3_2
*CAP
1 *1404:B 0.000139367
2 *1405:B 0
3 *232:DIODE 5.79717e-05
4 *1401:C 0.00114239
5 *1400:Y 0.0014027
6 *139:55 0.00112373
7 *139:47 0.00347064
8 *139:26 0.00759549
9 *139:14 0.00559028
10 *232:DIODE *1445:A 5.06989e-05
11 *1401:C *1494:A 8.99673e-05
12 *1401:C *200:50 0.000270653
13 *1404:B *1364:B1 4.67714e-05
14 *1404:B *1415:A 8.96431e-05
15 *139:14 *1327:A 0.00010225
16 *139:14 *1415:A 0.00120381
17 *139:14 *207:26 0
18 *139:14 *207:81 5.69945e-05
19 *139:26 *1411:A1 0
20 *139:26 *1443:B 3.99991e-05
21 *139:26 *1527:A 0.000377537
22 *139:26 *200:50 0.000432313
23 *139:47 *1342:B 0
24 *139:47 *1406:C 6.97118e-05
25 *139:47 *1411:A2 0.000763508
26 *139:47 *170:26 0.00071762
27 *139:47 *216:54 0
28 *139:55 *1351:C1 0.000717763
29 *139:55 *1405:A 2.49909e-05
30 *139:55 *143:18 0.000898388
31 *1362:B *139:55 0.000121032
32 *1401:A *1401:C 0.000417945
33 *1503:RESET_B *139:14 0.00031236
34 *1510:RESET_B *1404:B 6.15576e-06
35 *1511:D *1404:B 4.64564e-05
36 *22:20 *139:14 0.000342773
37 *52:16 *1401:C 0.000916242
38 *76:50 *139:14 0.000254158
39 *87:24 *139:26 1.23223e-05
40 *100:14 *139:26 0.00013732
41 *103:71 *139:47 0.000418469
42 *128:22 *139:47 0.000628536
*RES
1 *1400:Y *139:14 16.5559 
2 *139:14 *139:26 16.2854 
3 *139:26 *1401:C 20.5725 
4 *139:26 *139:47 47.19 
5 *139:47 *139:55 17.745 
6 *139:55 *232:DIODE 2.74 
7 *139:55 *1405:B 1.6 
8 *139:14 *1404:B 5.27367 
*END

*D_NET *140 0.00812258
*CONN
*I *1402:A I *D sky130_fd_sc_hd__clkbuf_1
*I *1401:X O *D sky130_fd_sc_hd__and3_1
*CAP
1 *1402:A 0.00174398
2 *1401:X 0.00174398
3 *1402:A *165:26 0.000303888
4 *1370:B *1402:A 0.000679272
5 *1370:C *1402:A 0.00059209
6 *49:16 *1402:A 0.000836224
7 *52:16 *1402:A 0.000455148
8 *118:10 *1402:A 0.00176801
*RES
1 *1401:X *1402:A 49.47 
*END

*D_NET *141 0.0213188
*CONN
*I *1404:A I *D sky130_fd_sc_hd__nand2_1
*I *1405:A I *D sky130_fd_sc_hd__or2_1
*I *1403:Y O *D sky130_fd_sc_hd__inv_2
*CAP
1 *1404:A 0.000953581
2 *1405:A 0.00196659
3 *1403:Y 0
4 *141:14 0.00447304
5 *141:4 0.00346003
6 *1404:A *1432:B 0.000187202
7 *1404:A *142:28 8.23457e-05
8 *1404:A *149:14 0.000132467
9 *1404:A *204:53 0.000335065
10 *1404:A *205:10 0.000514641
11 *1404:A *205:50 7.00223e-05
12 *1405:A *1417:B 2.42236e-05
13 *1405:A *1445:A 4.70326e-05
14 *1405:A *1446:C 0
15 *1405:A *1519:CLK 0.000177023
16 *1405:A *164:12 0
17 *1405:A *183:18 0.000495818
18 *1405:A *183:20 0.00105765
19 *141:14 *1339:A2 1.79483e-05
20 *141:14 *1415:A 0.000122512
21 *141:14 *1426:A 5.67393e-05
22 *141:14 *225:39 6.63219e-06
23 *1358:C *141:14 0.001174
24 *1375:B *141:14 0.000125954
25 *1498:D *141:14 0.00243413
26 *1503:D *141:14 2.35728e-05
27 *1510:D *1404:A 7.35116e-05
28 *1510:RESET_B *1404:A 0.00026617
29 *1524:RESET_B *1404:A 0.000134141
30 *20:12 *1405:A 0
31 *28:10 *1405:A 0.00132167
32 *39:22 *141:14 0.000317817
33 *84:14 *1404:A 0.000584633
34 *84:20 *1404:A 8.23457e-05
35 *95:109 *1404:A 0.00057532
36 *139:55 *1405:A 2.49909e-05
*RES
1 *1403:Y *141:4 1.6 
2 *141:4 *141:14 9.97117 
3 *141:14 *1405:A 46.8675 
4 *141:4 *1404:A 30.27 
*END

*D_NET *142 0.00894382
*CONN
*I *1406:B I *D sky130_fd_sc_hd__and3_1
*I *1404:Y O *D sky130_fd_sc_hd__nand2_1
*CAP
1 *1406:B 2.2036e-05
2 *1404:Y 0.00154061
3 *142:28 0.00156264
4 *1406:B *179:10 7.23533e-05
5 *1406:B *225:39 7.4027e-05
6 *142:28 *1452:A2 0.000738304
7 *142:28 *1534:A 0.000173284
8 *142:28 *155:18 0.000738443
9 *142:28 *174:36 1.0397e-05
10 *142:28 *179:110 7.51352e-05
11 *142:28 *179:131 8.0005e-05
12 *142:28 *188:21 0.000845335
13 *142:28 *204:53 0.00013521
14 *1386:D *142:28 0.000509819
15 *1391:A *142:28 0.000863867
16 *1404:A *142:28 8.23457e-05
17 *1510:D *142:28 8.49302e-05
18 *1510:RESET_B *142:28 1.19928e-05
19 *50:30 *142:28 0.000268745
20 *84:14 *142:28 0.000523145
21 *117:24 *142:28 1.5903e-05
22 *129:10 *142:28 0.000515292
*RES
1 *1404:Y *142:28 48.705 
2 *142:28 *1406:B 6.47 
*END

*D_NET *143 0.0166594
*CONN
*I *1411:A2 I *D sky130_fd_sc_hd__a211oi_1
*I *1406:C I *D sky130_fd_sc_hd__and3_1
*I *1405:X O *D sky130_fd_sc_hd__or2_1
*CAP
1 *1411:A2 0.00094935
2 *1406:C 0.000671061
3 *1405:X 0.00192885
4 *143:24 0.00170196
5 *143:18 0.0020104
6 *1406:C *1385:B1 0.00034774
7 *1406:C *1423:B 0.000776313
8 *1406:C *1461:A 0.000199433
9 *1406:C *179:10 0.00039547
10 *1406:C *207:122 0.000136301
11 *1406:C *224:59 9.97257e-06
12 *1406:C *224:65 0
13 *1406:C *225:39 0.000636423
14 *1411:A2 *1411:A1 0.000292502
15 *143:18 *1336:A1 0.000792834
16 *143:18 *1336:B1 4.89395e-05
17 *143:18 *1351:C1 0.000627247
18 *143:18 *1389:A 8.41384e-05
19 *143:18 *1471:A 0
20 *143:18 *156:10 0.000102238
21 *143:24 *207:122 0.000134883
22 *143:24 *224:65 0.000247296
23 *1337:B *143:18 0.000112123
24 *1349:A3 *143:18 0
25 *1349:B1 *143:18 0.000532544
26 *1351:A1 *143:18 0.000381907
27 *1351:A2 *143:18 0.000912061
28 *1362:A *143:18 2.69153e-05
29 *1362:C *143:18 9.16333e-06
30 *1363:A *143:18 2.747e-05
31 *1389:B *143:18 4.77807e-05
32 *1411:C1 *1411:A2 4.82919e-05
33 *31:16 *143:18 0.000526739
34 *61:24 *1406:C 1.70906e-05
35 *104:16 *143:18 0.000121986
36 *105:20 *1406:C 5.60478e-05
37 *115:22 *1406:C 1.43664e-05
38 *139:47 *1406:C 6.97118e-05
39 *139:47 *1411:A2 0.000763508
40 *139:55 *143:18 0.000898388
*RES
1 *1405:X *143:18 49.445 
2 *143:18 *143:24 6.91 
3 *143:24 *1406:C 24.605 
4 *143:24 *1411:A2 20.335 
*END

*D_NET *144 0.0139683
*CONN
*I *1407:A I *D sky130_fd_sc_hd__buf_1
*I *1406:X O *D sky130_fd_sc_hd__and3_1
*CAP
1 *1407:A 0.00152845
2 *1406:X 0.00220395
3 *144:14 0.00373241
4 *1407:A *1342:A 0.000213504
5 *1407:A *1342:B 0.000309187
6 *1407:A *1342:C 0.000307962
7 *1407:A *1342:D 0.000500993
8 *1407:A *1409:A 7.47215e-05
9 *1407:A *183:20 0
10 *1407:A *201:16 0.000109016
11 *1407:A *210:33 2.84224e-05
12 *1407:A *216:48 0.001386
13 *1407:A *219:20 3.10886e-05
14 *144:14 *1336:A2 0.000378906
15 *144:14 *1420:B1 0.0010654
16 *144:14 *1430:A 6.27114e-05
17 *144:14 *1431:A 7.23602e-05
18 *144:14 *225:39 7.23602e-05
19 *1351:A1 *1407:A 0.000782756
20 *1525:RESET_B *144:14 0.00060033
21 *88:66 *144:14 7.18044e-05
22 *105:66 *144:14 0.00018955
23 *134:73 *144:14 0.000246397
*RES
1 *1406:X *144:14 36.175 
2 *144:14 *1407:A 44.08 
*END

*D_NET *145 0.0058614
*CONN
*I *1411:A1 I *D sky130_fd_sc_hd__a211oi_1
*I *1408:Y O *D sky130_fd_sc_hd__inv_2
*CAP
1 *1411:A1 0.00145602
2 *1408:Y 0.00145602
3 *1411:A1 *1347:A_N 5.83393e-05
4 *1411:A1 *1347:B 0.00019222
5 *1411:A1 *1408:A 0.000428892
6 *1411:A1 *1487:A 0
7 *1411:A1 *168:30 0.000627333
8 *1411:A1 *181:151 8.23457e-05
9 *1411:A1 *200:30 0.000477223
10 *1344:A *1411:A1 0.000521876
11 *1411:A2 *1411:A1 0.000292502
12 *1411:C1 *1411:A1 1.61831e-05
13 *37:24 *1411:A1 0.000228863
14 *97:10 *1411:A1 2.35892e-05
15 *100:14 *1411:A1 0
16 *133:10 *1411:A1 0
17 *139:26 *1411:A1 0
*RES
1 *1408:Y *1411:A1 36.33 
*END

*D_NET *146 0.0289155
*CONN
*I *1410:A I *D sky130_fd_sc_hd__clkbuf_4
*I *233:DIODE I *D sky130_fd_sc_hd__diode_2
*I *1409:X O *D sky130_fd_sc_hd__and4_1
*CAP
1 *1410:A 6.81359e-05
2 *233:DIODE 0
3 *1409:X 0.0125602
4 *146:26 0.0126283
5 *1410:A *147:10 0.000203178
6 *146:26 *1393:B 0.000233824
7 *146:26 *1443:B 0
8 *146:26 *1527:A 0
9 *146:26 *166:10 0.000411748
10 *146:26 *168:30 0.00011616
11 *146:26 *168:55 0.000204619
12 *146:26 *176:12 0.000121261
13 *146:26 *176:41 0.00011777
14 *146:26 *191:16 0.000267548
15 *146:26 *196:22 0.000295069
16 *1346:D *146:26 5.05905e-05
17 *1362:A *146:26 0.000132553
18 *1366:A *146:26 0.000112534
19 *1393:C *146:26 0.000182617
20 *1397:B *146:26 0.000120674
21 *1495:D *146:26 0.000129676
22 *1499:D *146:26 0
23 *1509:D *146:26 0
24 *1515:D *146:26 0.000116216
25 *1528:A *146:26 0
26 *32:16 *146:26 0.000339187
27 *47:91 *146:26 0
28 *94:16 *146:26 0.000105705
29 *98:14 *146:26 0.000100398
30 *106:29 *146:26 0.000285759
31 *129:30 *146:26 1.17036e-05
*RES
1 *1409:X *146:26 28.433 
2 *146:26 *233:DIODE 1.6 
3 *146:26 *1410:A 3.43 
*END

*D_NET *147 0.0363608
*CONN
*I *1432:C I *D sky130_fd_sc_hd__and4_1
*I *1412:B I *D sky130_fd_sc_hd__or2_1
*I *1413:B I *D sky130_fd_sc_hd__nand2_2
*I *1419:A3 I *D sky130_fd_sc_hd__a31o_1
*I *1442:B I *D sky130_fd_sc_hd__and3_2
*I *1441:A1 I *D sky130_fd_sc_hd__a21oi_2
*I *1421:A4 I *D sky130_fd_sc_hd__a41o_1
*I *1440:B2 I *D sky130_fd_sc_hd__a221oi_1
*I *1423:A I *D sky130_fd_sc_hd__and2_1
*I *1411:B1 I *D sky130_fd_sc_hd__a211oi_1
*I *1410:X O *D sky130_fd_sc_hd__clkbuf_4
*CAP
1 *1432:C 0
2 *1412:B 0
3 *1413:B 0
4 *1419:A3 0
5 *1442:B 0
6 *1441:A1 0.000827643
7 *1421:A4 0.000541333
8 *1440:B2 6.8296e-05
9 *1423:A 0.0013608
10 *1411:B1 2.41635e-05
11 *1410:X 0.00123634
12 *147:84 0.00178989
13 *147:76 0.0023189
14 *147:68 0.00141166
15 *147:66 0.00039682
16 *147:18 0.00161136
17 *147:16 0.00129774
18 *147:14 0.0015824
19 *147:12 0.000571304
20 *147:10 0.00142779
21 *1421:A4 *1421:A3 0.0009828
22 *1423:A *1487:A 0
23 *1440:B2 *1331:A 8.30403e-05
24 *1440:B2 *1440:B1 1.69191e-05
25 *1440:B2 *1540:A 0.000193801
26 *1441:A1 *1441:B1 8.40213e-05
27 *1441:A1 *1442:A 3.64622e-05
28 *1441:A1 *1442:C 2.8585e-06
29 *1441:A1 *1473:A 9.20043e-05
30 *1441:A1 *1506:CLK 0.000104148
31 *1441:A1 *153:12 0.000560978
32 *1441:A1 *170:14 1.56428e-05
33 *1441:A1 *180:70 0.000265628
34 *1441:A1 *180:80 0.000177577
35 *1441:A1 *187:22 0.000426124
36 *1441:A1 *187:34 0.000133188
37 *1441:A1 *202:6 4.66108e-05
38 *1441:A1 *202:57 0.000158072
39 *147:10 *1432:D 9.12494e-06
40 *147:10 *221:52 0.00024952
41 *147:12 *1432:B 0.000689458
42 *147:12 *1432:D 0.000697989
43 *147:14 *1432:B 0.000155176
44 *147:14 *1432:D 0.000163019
45 *147:16 *1432:B 0.000270647
46 *147:16 *1432:D 0.000147397
47 *147:16 *155:18 0.00147551
48 *147:16 *207:110 0.000720974
49 *147:16 *221:52 0.000273851
50 *147:18 *207:110 0.00021798
51 *147:66 *206:69 0.000857316
52 *147:66 *207:81 0.000169103
53 *147:66 *218:90 0.000122706
54 *147:68 *206:58 0.00015896
55 *147:68 *206:69 7.14699e-05
56 *147:76 *1419:A2 0.000120655
57 *147:76 *1435:A 6.14974e-05
58 *147:76 *1467:A 0.000302981
59 *147:76 *1469:A 0.00016031
60 *147:76 *149:46 0
61 *147:76 *188:21 4.94993e-05
62 *147:76 *205:50 0
63 *147:76 *207:26 0.000867698
64 *147:84 *1333:A1_N 0.000130106
65 *147:84 *170:14 4.43682e-05
66 *147:84 *188:59 0.00058914
67 *147:84 *188:65 0.000150825
68 *147:84 *204:10 0.000438364
69 *147:84 *204:24 8.32485e-05
70 *147:84 *206:16 6.36438e-07
71 *147:84 *208:108 0
72 *1348:C *1423:A 0.000547916
73 *1362:A *147:84 8.35106e-05
74 *1373:C *147:76 0
75 *1377:C *147:16 0.000335334
76 *1410:A *147:10 0.000203178
77 *1411:C1 *1411:B1 4.82863e-05
78 *1411:C1 *1423:A 0
79 *1411:C1 *147:18 4.47772e-05
80 *1440:C1 *1440:B2 4.66108e-05
81 *1506:D *1441:A1 6.38599e-05
82 *1506:RESET_B *1441:A1 0.000487399
83 *1507:RESET_B *1441:A1 0.000510888
84 *26:10 *147:16 0.000431673
85 *26:10 *147:18 0.0001964
86 *51:8 *147:76 0.000130354
87 *52:16 *1423:A 2.74961e-05
88 *69:8 *147:76 0.0019403
89 *93:14 *147:76 0.000722515
90 *95:109 *147:76 0
91 *106:29 *147:10 0.000201487
92 *107:38 *147:66 0.000328549
93 *107:38 *147:68 0.000229536
94 *118:10 *1423:A 0.000230094
95 *118:18 *147:10 0
96 *122:10 *147:16 0.000254764
*RES
1 *1410:X *147:10 20.895 
2 *147:10 *147:12 8.265 
3 *147:12 *147:14 1.89 
4 *147:14 *147:16 33 
5 *147:16 *147:18 6.225 
6 *147:18 *1411:B1 4.05 
7 *147:18 *1423:A 27.915 
8 *147:16 *1440:B2 5.79 
9 *147:14 *1421:A4 13.38 
10 *147:12 *147:66 12.11 
11 *147:66 *147:68 2.175 
12 *147:68 *147:76 39.595 
13 *147:76 *147:84 22.21 
14 *147:84 *1441:A1 28.31 
15 *147:84 *1442:B 1.6 
16 *147:76 *1419:A3 1.6 
17 *147:68 *1413:B 1.6 
18 *147:66 *1412:B 1.6 
19 *147:10 *1432:C 3.6 
*END

*D_NET *148 0.01527
*CONN
*I *1414:B I *D sky130_fd_sc_hd__and3_1
*I *1412:X O *D sky130_fd_sc_hd__or2_1
*CAP
1 *1414:B 0.00364098
2 *1412:X 0.00364098
3 *1414:B *1340:A 0.000669954
4 *1414:B *167:18 2.9798e-05
5 *1414:B *193:20 0.000165949
6 *1414:B *205:10 9.5799e-06
7 *1414:B *206:49 0.00192046
8 *1414:B *208:16 9.26907e-06
9 *1414:B *208:61 9.0671e-05
10 *1414:B *210:33 7.94548e-05
11 *1414:B *210:91 5.86537e-05
12 *1414:B *216:48 0.000341962
13 *1414:B *218:30 0.00130429
14 *1414:B *219:14 0.000440394
15 *1414:B *225:12 0.000158965
16 *1414:A *1414:B 5.21046e-05
17 *1498:D *1414:B 0
18 *1503:D *1414:B 0.000890284
19 *51:8 *1414:B 1.88602e-05
20 *54:30 *1414:B 0.000837183
21 *88:14 *1414:B 7.28465e-06
22 *103:71 *1414:B 0.000554522
23 *105:45 *1414:B 0.000243241
24 *105:49 *1414:B 8.54129e-05
25 *105:107 *1414:B 1.97849e-05
*RES
1 *1412:X *1414:B 49.0845 
*END

*D_NET *149 0.0238532
*CONN
*I *1416:B I *D sky130_fd_sc_hd__xor2_1
*I *1414:C I *D sky130_fd_sc_hd__and3_1
*I *1420:A2 I *D sky130_fd_sc_hd__o211a_1
*I *1413:Y O *D sky130_fd_sc_hd__nand2_2
*CAP
1 *1416:B 0.00108207
2 *1414:C 0.0019156
3 *1420:A2 8.9561e-05
4 *1413:Y 1.81205e-05
5 *149:46 0.00207555
6 *149:14 0.00328539
7 *149:6 0.00229183
8 *1414:C *1452:C1 0.000750268
9 *1414:C *156:10 6.78155e-05
10 *1414:C *167:18 0.00269557
11 *1416:B *1341:A1 0.000370437
12 *1416:B *1527:A 0.000331005
13 *1420:A2 *1420:A1 8.7152e-06
14 *1420:A2 *157:14 8.63303e-05
15 *1420:A2 *191:43 9.0889e-05
16 *149:6 *218:90 8.49205e-05
17 *149:14 *1455:A 0.000127052
18 *149:14 *157:14 0.000833788
19 *149:14 *191:41 0.000193149
20 *149:14 *191:43 0.000360751
21 *149:14 *206:58 1.10085e-05
22 *149:14 *207:81 7.00223e-05
23 *149:14 *218:90 0.000118237
24 *149:14 *224:8 4.66108e-05
25 *149:46 *1386:B 0.000124938
26 *149:46 *179:131 0.000678228
27 *149:46 *188:21 0.000444281
28 *1337:A *1414:C 0.000338004
29 *1337:A *149:14 0.00045166
30 *1337:B *1414:C 4.77757e-05
31 *1404:A *149:14 0.000132467
32 *1508:D *149:14 9.30787e-05
33 *1509:D *1416:B 8.68767e-06
34 *1514:RESET_B *149:14 0.0009556
35 *1524:RESET_B *149:14 0.000420003
36 *107:38 *149:6 4.35348e-05
37 *107:38 *149:14 0.000202853
38 *118:20 *1416:B 0.00290737
39 *147:76 *149:46 0
*RES
1 *1413:Y *149:6 2.395 
2 *149:6 *149:14 37.88 
3 *149:14 *1420:A2 5.745 
4 *149:14 *1414:C 37.9075 
5 *149:6 *149:46 24.25 
6 *149:46 *1416:B 34.07 
*END

*D_NET *150 0.0194795
*CONN
*I *1415:A I *D sky130_fd_sc_hd__clkbuf_1
*I *1414:X O *D sky130_fd_sc_hd__and3_1
*CAP
1 *1415:A 0.00622905
2 *1414:X 0.00622905
3 *1415:A *1342:B 0.000100111
4 *1415:A *1364:A2 4.06927e-05
5 *1415:A *1433:A1 0
6 *1415:A *1434:B 0
7 *1415:A *1443:B 0.00113328
8 *1415:A *176:41 3.09703e-05
9 *1415:A *177:18 0
10 *1415:A *198:16 0.000794673
11 *1415:A *204:24 0.00106303
12 *1415:A *219:14 0.000463345
13 *1333:B1 *1415:A 7.96104e-06
14 *1362:A *1415:A 2.39925e-05
15 *1404:B *1415:A 8.96431e-05
16 *1495:RESET_B *1415:A 4.52591e-05
17 *1528:A *1415:A 0.00114729
18 *39:22 *1415:A 0.000128707
19 *76:50 *1415:A 4.06927e-05
20 *86:10 *1415:A 0.000585483
21 *105:20 *1415:A 0
22 *139:14 *1415:A 0.00120381
23 *141:14 *1415:A 0.000122512
*RES
1 *1414:X *1415:A 31.4615 
*END

*D_NET *151 0.0108086
*CONN
*I *1417:B I *D sky130_fd_sc_hd__nor2_1
*I *1416:X O *D sky130_fd_sc_hd__xor2_1
*CAP
1 *1417:B 0.000387771
2 *1416:X 0.00173085
3 *151:12 0.00211862
4 *151:12 *1341:A2 4.77757e-05
5 *151:12 *1434:B 0
6 *151:12 *164:12 0
7 *1405:A *1417:B 2.42236e-05
8 *1498:D *151:12 7.06865e-05
9 *1499:D *1417:B 0.00022426
10 *1499:D *151:12 0.000664259
11 *1509:D *151:12 0.000392094
12 *1509:RESET_B *151:12 0.00102709
13 *20:12 *1417:B 0.000676626
14 *20:12 *151:12 0.00173815
15 *28:10 *1417:B 0.00119257
16 *28:10 *151:12 0.000513599
17 *134:37 *151:12 0
*RES
1 *1416:X *151:12 45.8625 
2 *151:12 *1417:B 18.1125 
*END

*D_NET *152 0.00613059
*CONN
*I *1420:A1 I *D sky130_fd_sc_hd__o211a_1
*I *1418:Y O *D sky130_fd_sc_hd__nand2_1
*CAP
1 *1420:A1 0.00208482
2 *1418:Y 0.00208482
3 *1420:A1 *1418:A 3.00381e-05
4 *1420:A1 *1418:B 0.000185123
5 *1420:A1 *157:14 0.000113373
6 *1420:A1 *191:43 0.00010347
7 *1374:B *1420:A1 0.000758103
8 *1420:A2 *1420:A1 8.7152e-06
9 *95:83 *1420:A1 0
10 *97:18 *1420:A1 0
11 *115:101 *1420:A1 0.000762123
*RES
1 *1418:Y *1420:A1 35.565 
*END

*D_NET *153 0.0168554
*CONN
*I *1420:B1 I *D sky130_fd_sc_hd__o211a_1
*I *1419:X O *D sky130_fd_sc_hd__a31o_1
*CAP
1 *1420:B1 0.00116002
2 *1419:X 0.00061479
3 *153:12 0.00281903
4 *153:8 0.00227381
5 *1420:B1 *1385:A1 4.66108e-05
6 *1420:B1 *1430:A 8.65905e-05
7 *1420:B1 *1446:B 0.000896453
8 *1420:B1 *217:10 0.000891781
9 *153:8 *1419:A2 0.000122331
10 *153:8 *1419:B1 9.93004e-05
11 *153:8 *207:26 1.61831e-05
12 *153:12 *1330:A 0.000251353
13 *153:12 *1348:D 0.000959155
14 *153:12 *1369:A 0.000169238
15 *153:12 *1400:A 0.000175567
16 *153:12 *1530:A 0.000629171
17 *153:12 *183:81 1.7902e-05
18 *153:12 *183:83 0.000171927
19 *153:12 *187:22 0.000139507
20 *153:12 *187:34 9.40074e-05
21 *153:12 *199:56 5.63924e-05
22 *153:12 *202:10 0.000197797
23 *153:12 *208:41 3.97211e-05
24 *153:12 *208:108 0
25 *153:12 *210:60 0.000361026
26 *1385:A2 *1420:B1 4.66108e-05
27 *1390:C *1420:B1 0.000131507
28 *1398:A *1420:B1 0.000639527
29 *1399:A2 *1420:B1 6.62684e-05
30 *1441:A1 *153:12 0.000560978
31 *23:16 *1420:B1 0.000673323
32 *47:26 *153:12 0
33 *47:28 *153:12 0
34 *49:16 *1420:B1 4.67484e-05
35 *88:66 *1420:B1 0.000557391
36 *88:66 *153:12 1.7635e-05
37 *103:71 *153:12 0.00030603
38 *105:20 *1420:B1 0.000221442
39 *115:28 *1420:B1 9.57985e-05
40 *115:76 *1420:B1 1.33184e-05
41 *128:22 *1420:B1 2.79951e-05
42 *134:37 *153:12 0
43 *134:73 *1420:B1 9.57985e-05
44 *144:14 *1420:B1 0.0010654
*RES
1 *1419:X *153:8 10.95 
2 *153:8 *153:12 41.885 
3 *153:12 *1420:B1 40.25 
*END

*D_NET *154 0.0144657
*CONN
*I *1425:B I *D sky130_fd_sc_hd__and3_1
*I *1421:X O *D sky130_fd_sc_hd__a41o_1
*CAP
1 *1425:B 0.00262199
2 *1421:X 0.00169483
3 *154:12 0.00431682
4 *1425:B *1352:B1_N 2.51213e-05
5 *1425:B *1440:A1 2.97573e-05
6 *1425:B *1440:B1 0.000108761
7 *1425:B *1540:A 0.00141302
8 *154:12 *1421:A2 0.000464505
9 *154:12 *1518:CLK 0
10 *154:12 *220:106 0.000275555
11 *1352:A2 *1425:B 3.1835e-05
12 *1370:C *154:12 0.00216156
13 *1380:B1 *154:12 0
14 *1526:RESET_B *154:12 0
15 *115:28 *1425:B 0.000636866
16 *115:76 *1425:B 0.000673891
17 *115:101 *1425:B 1.11712e-05
*RES
1 *1421:X *154:12 41.315 
2 *154:12 *1425:B 35.17 
*END

*D_NET *155 0.0279638
*CONN
*I *1432:D I *D sky130_fd_sc_hd__and4_1
*I *1439:B I *D sky130_fd_sc_hd__and2_2
*I *1423:B I *D sky130_fd_sc_hd__and2_1
*I *1422:X O *D sky130_fd_sc_hd__and4_2
*CAP
1 *1432:D 0.000353019
2 *1439:B 0.00228238
3 *1423:B 0.00185565
4 *1422:X 0.000179845
5 *155:18 0.00594872
6 *155:8 0.00234355
7 *1423:B *1431:A 0.00123253
8 *1423:B *156:10 0
9 *1423:B *181:124 4.2444e-05
10 *1423:B *207:122 0.000312807
11 *1423:B *207:126 4.77719e-05
12 *1423:B *209:39 1.04035e-05
13 *1439:B *1375:A 0.000247678
14 *1439:B *1379:A 0.00103036
15 *1439:B *1446:C 0.000884624
16 *1439:B *168:8 2.8185e-05
17 *1439:B *183:68 0.00010058
18 *1439:B *183:77 8.25735e-05
19 *1439:B *210:60 2.03861e-05
20 *1439:B *222:10 0.000155227
21 *1439:B *226:16 0.000392707
22 *155:8 *1421:B1 2.65814e-06
23 *155:8 *1432:B 1.01315e-05
24 *155:8 *1520:CLK 1.56428e-05
25 *155:18 *1431:A 8.90199e-05
26 *155:18 *203:12 0.000176315
27 *155:18 *209:39 4.04619e-05
28 *155:18 *214:38 8.23457e-05
29 *155:18 *222:18 5.39667e-05
30 *1348:C *1423:B 0.000530296
31 *1380:A1 *1439:B 0.000471241
32 *1383:A *1439:B 0.000101188
33 *1383:B *1439:B 0.000124158
34 *1383:C *1439:B 0.000106706
35 *1384:A *1439:B 0.000160314
36 *1406:C *1423:B 0.000776313
37 *1439:A *1439:B 0.000482364
38 *1502:D *1439:B 7.70314e-05
39 *1502:RESET_B *1439:B 2.94736e-05
40 *1507:RESET_B *1439:B 0.000266164
41 *1520:D *155:18 0.00105704
42 *26:10 *1432:D 0.000325331
43 *26:10 *155:18 0.000227124
44 *42:20 *1423:B 8.88747e-05
45 *42:20 *1439:B 4.66108e-05
46 *43:24 *1439:B 0.000528107
47 *57:16 *1423:B 0.000118081
48 *115:22 *1423:B 0.000248898
49 *118:18 *1432:D 0.000132532
50 *138:12 *155:18 0.000812487
51 *142:28 *155:18 0.000738443
52 *147:10 *1432:D 9.12494e-06
53 *147:12 *1432:D 0.000697989
54 *147:14 *1432:D 0.000163019
55 *147:16 *1432:D 0.000147397
56 *147:16 *155:18 0.00147551
*RES
1 *1422:X *155:8 5.43 
2 *155:8 *155:18 44.755 
3 *155:18 *1423:B 47.56 
4 *155:18 *1439:B 46.0364 
5 *155:8 *1432:D 15.435 
*END

*D_NET *156 0.0167734
*CONN
*I *1424:A I *D sky130_fd_sc_hd__inv_2
*I *1427:B I *D sky130_fd_sc_hd__or2_1
*I *1428:B I *D sky130_fd_sc_hd__nand2_1
*I *1423:X O *D sky130_fd_sc_hd__and2_1
*CAP
1 *1424:A 0.00041204
2 *1427:B 0.00076853
3 *1428:B 1.89506e-05
4 *1423:X 0.00196786
5 *156:31 0.00226383
6 *156:10 0.00307007
7 *1424:A *1498:CLK 0.000158066
8 *1424:A *1503:CLK 0.000111011
9 *1424:A *199:27 2.68526e-05
10 *1424:A *199:42 0.000111485
11 *1424:A *199:107 0.000411679
12 *1424:A *210:91 8.50063e-05
13 *1424:A *218:90 0.000298082
14 *1427:B *199:107 8.73389e-06
15 *1427:B *203:33 0.000135201
16 *1427:B *211:27 0.000667968
17 *1428:B *165:51 1.87365e-05
18 *1428:B *193:22 4.93297e-05
19 *156:10 *1431:A 0
20 *156:10 *168:30 0
21 *156:10 *181:44 2.3228e-05
22 *156:10 *189:28 0
23 *156:31 *1428:A 0
24 *156:31 *180:58 0
25 *156:31 *181:124 0.000132961
26 *156:31 *182:12 1.88656e-05
27 *156:31 *182:66 0.000461663
28 *156:31 *189:28 0.000846997
29 *156:31 *212:23 0
30 *1333:B1 *1424:A 4.22064e-05
31 *1333:B1 *1427:B 9.66743e-05
32 *1333:B1 *156:31 0.000129127
33 *1337:B *156:10 0.00101898
34 *1339:B1 *156:31 0.000375353
35 *1348:C *156:10 0.000998752
36 *1358:C *156:31 0
37 *1414:C *156:10 6.78155e-05
38 *1423:B *156:10 0
39 *1495:RESET_B *1427:B 0.000133528
40 *1503:D *1424:A 0
41 *1503:D *156:31 0
42 *1525:D *156:10 0.000111293
43 *1525:D *156:31 0.00145964
44 *49:16 *156:31 8.35118e-05
45 *50:30 *156:31 4.81484e-06
46 *88:66 *156:31 8.23457e-05
47 *103:24 *156:31 0
48 *128:22 *156:10 0
49 *143:18 *156:10 0.000102238
*RES
1 *1423:X *156:10 36.495 
2 *156:10 *1428:B 4.07625 
3 *156:10 *156:31 31.465 
4 *156:31 *1427:B 18.31 
5 *156:31 *1424:A 13.47 
*END

*D_NET *157 0.0107326
*CONN
*I *1425:C I *D sky130_fd_sc_hd__and3_1
*I *1424:Y O *D sky130_fd_sc_hd__inv_2
*CAP
1 *1425:C 0.00114369
2 *1424:Y 0.0013606
3 *157:14 0.00250429
4 *1425:C *1352:B1_N 0.000761205
5 *1425:C *1449:A1 0.000188548
6 *1425:C *1461:A 7.23533e-05
7 *1425:C *1482:A 1.70906e-05
8 *157:14 *1447:A 0.00124068
9 *157:14 *1532:A 1.75833e-05
10 *157:14 *224:59 3.62533e-05
11 *1390:C *157:14 7.87594e-05
12 *1420:A1 *157:14 0.000113373
13 *1420:A2 *157:14 8.63303e-05
14 *1452:B1 *157:14 6.27434e-06
15 *1503:RESET_B *157:14 0.00011178
16 *1508:D *157:14 9.47454e-05
17 *1513:D *157:14 3.97576e-05
18 *1524:D *157:14 7.90657e-06
19 *1524:RESET_B *157:14 0.00109895
20 *61:24 *1425:C 7.06865e-05
21 *97:12 *157:14 0
22 *97:18 *157:14 0
23 *107:38 *157:14 0.000847983
24 *149:14 *157:14 0.000833788
*RES
1 *1424:Y *157:14 43.745 
2 *157:14 *1425:C 20.54 
*END

*D_NET *158 0.0101896
*CONN
*I *1426:A I *D sky130_fd_sc_hd__buf_1
*I *1425:X O *D sky130_fd_sc_hd__and3_1
*CAP
1 *1426:A 0.00182943
2 *1425:X 0.00182943
3 *1426:A *1339:A1 0.000108576
4 *1426:A *1532:A 0.000358895
5 *1426:A *181:58 5.93094e-05
6 *1426:A *191:30 0.000275322
7 *1426:A *206:24 0.000478116
8 *1426:A *206:32 0.00190553
9 *1426:A *208:61 0.000124591
10 *1426:A *226:16 0.00031233
11 *1358:C *1426:A 0.000441001
12 *1362:A *1426:A 0.000145225
13 *1375:B *1426:A 0.000488392
14 *1498:D *1426:A 7.20493e-06
15 *1516:RESET_B *1426:A 0.00035372
16 *61:24 *1426:A 0.001027
17 *117:24 *1426:A 0.00038882
18 *141:14 *1426:A 5.67393e-05
*RES
1 *1425:X *1426:A 43.5791 
*END

*D_NET *159 0.00936384
*CONN
*I *1429:B I *D sky130_fd_sc_hd__and3_1
*I *1427:X O *D sky130_fd_sc_hd__or2_1
*CAP
1 *1429:B 0.000378593
2 *1427:X 0.00122181
3 *159:26 0.00160041
4 *1429:B *1395:A 8.83862e-05
5 *1429:B *1430:A 0.000522414
6 *1429:B *194:24 0.000557022
7 *1429:B *225:29 4.60814e-05
8 *159:26 *1330:A 0.000403023
9 *159:26 *1372:B1 0.000649584
10 *159:26 *1375:A 0.000514675
11 *159:26 *190:58 6.85268e-05
12 *159:26 *208:41 0.000201801
13 *159:26 *208:108 9.58678e-06
14 *159:26 *221:10 2.82887e-05
15 *159:26 *221:37 4.66108e-05
16 *159:26 *222:10 0.000348524
17 *1397:B *1429:B 0.000469095
18 *48:12 *159:26 0.0002563
19 *57:16 *1429:B 2.15454e-05
20 *68:18 *159:26 0.00160927
21 *88:66 *159:26 0.000222119
22 *117:24 *159:26 0.000100174
*RES
1 *1427:X *159:26 45.805 
2 *159:26 *1429:B 13.105 
*END

*D_NET *160 0.0128013
*CONN
*I *1433:A2 I *D sky130_fd_sc_hd__a211oi_1
*I *1429:C I *D sky130_fd_sc_hd__and3_1
*I *1428:Y O *D sky130_fd_sc_hd__nand2_1
*CAP
1 *1433:A2 0.00182746
2 *1429:C 0.000243735
3 *1428:Y 0.00146056
4 *160:8 0.00353175
5 *1429:C *176:41 7.22366e-05
6 *1433:A2 *1336:A2 6.25977e-05
7 *1433:A2 *1433:A1 8.23677e-05
8 *1433:A2 *1530:A 0
9 *1433:A2 *183:68 0
10 *1433:A2 *187:44 0
11 *1433:A2 *190:48 8.23457e-05
12 *1433:A2 *218:72 0
13 *160:8 *193:22 0.0019744
14 *1331:B *1429:C 0.000299475
15 *1331:B *1433:A2 0.000633276
16 *1365:A_N *1433:A2 0
17 *1384:A *1429:C 5.05774e-06
18 *1384:A *1433:A2 0.000106584
19 *1397:B *1429:C 0.000145484
20 *1498:D *1433:A2 0.000144588
21 *1513:D *1433:A2 0
22 *54:30 *1433:A2 0
23 *86:10 *1433:A2 0.00202567
24 *95:36 *1433:A2 1.3494e-05
25 *103:71 *1429:C 9.02309e-05
26 *103:71 *1433:A2 0
27 *109:30 *1433:A2 0
*RES
1 *1428:Y *160:8 22.335 
2 *160:8 *1429:C 8.895 
3 *160:8 *1433:A2 45.16 
*END

*D_NET *161 0.00278947
*CONN
*I *1430:A I *D sky130_fd_sc_hd__clkbuf_1
*I *1429:X O *D sky130_fd_sc_hd__and3_1
*CAP
1 *1430:A 0.000641623
2 *1429:X 0.000641623
3 *1430:A *1348:D 0.000202746
4 *1430:A *1369:A 0.000275076
5 *1430:A *194:20 6.90254e-05
6 *1430:A *210:60 9.63167e-05
7 *1420:B1 *1430:A 8.65905e-05
8 *1429:B *1430:A 0.000522414
9 *134:73 *1430:A 0.000191343
10 *144:14 *1430:A 6.27114e-05
*RES
1 *1429:X *1430:A 19.68 
*END

*D_NET *162 0.020528
*CONN
*I *1433:A1 I *D sky130_fd_sc_hd__a211oi_1
*I *1431:Y O *D sky130_fd_sc_hd__inv_2
*CAP
1 *1433:A1 0.00791843
2 *1431:Y 0.00791843
3 *1433:A1 *1372:B1 0.000133635
4 *1433:A1 *1434:B 9.41985e-05
5 *1433:A1 *1541:A 0
6 *1433:A1 *188:65 0.000104583
7 *1362:A *1433:A1 0.00270956
8 *1365:C *1433:A1 0.000116265
9 *1383:C *1433:A1 0.000225704
10 *1390:C *1433:A1 0
11 *1415:A *1433:A1 0
12 *1433:A2 *1433:A1 8.23677e-05
13 *1495:RESET_B *1433:A1 0.000233028
14 *1507:D *1433:A1 0.000129951
15 *1521:D *1433:A1 0.000138846
16 *39:22 *1433:A1 0
17 *48:12 *1433:A1 0.000105469
18 *70:34 *1433:A1 5.03635e-05
19 *88:66 *1433:A1 0.000108476
20 *104:16 *1433:A1 0.000458684
*RES
1 *1431:Y *1433:A1 23.6109 
*END

*D_NET *163 0.016291
*CONN
*I *1435:B I *D sky130_fd_sc_hd__nand2_1
*I *1433:B1 I *D sky130_fd_sc_hd__a211oi_1
*I *1434:B I *D sky130_fd_sc_hd__or2_1
*I *1432:X O *D sky130_fd_sc_hd__and4_1
*CAP
1 *1435:B 0.000296187
2 *1433:B1 0
3 *1434:B 0.00245673
4 *1432:X 0.000708882
5 *163:12 0.00494231
6 *163:6 0.00349065
7 *1435:B *1364:A2 2.83709e-05
8 *1435:B *1435:A 3.09774e-05
9 *1435:B *165:26 8.23457e-05
10 *1435:B *199:107 5.49536e-05
11 *163:6 *1432:A 0.00075421
12 *163:12 *1432:A 0.00125627
13 *163:12 *207:16 0.000303266
14 *1333:B1 *1434:B 0
15 *1365:A_N *1434:B 5.05716e-06
16 *1386:D *1435:B 0.000421601
17 *1415:A *1434:B 0
18 *1433:A1 *1434:B 9.41985e-05
19 *1433:C1 *163:12 0.000565929
20 *1499:D *1434:B 0
21 *1510:RESET_B *1435:B 0.000168222
22 *1516:D *163:12 0.000119242
23 *70:34 *1434:B 1.79536e-05
24 *70:34 *163:12 0.00017661
25 *76:50 *1435:B 0
26 *77:12 *163:12 0.000316988
27 *151:12 *1434:B 0
*RES
1 *1432:X *163:6 10.675 
2 *163:6 *163:12 34.035 
3 *163:12 *1434:B 10.7957 
4 *163:12 *1433:B1 1.6 
5 *163:6 *1435:B 12.665 
*END

*D_NET *164 0.00831493
*CONN
*I *1436:B I *D sky130_fd_sc_hd__and3_1
*I *1434:X O *D sky130_fd_sc_hd__or2_1
*CAP
1 *1436:B 0.000687921
2 *1434:X 0.00202246
3 *164:12 0.00271038
4 *1436:B *234:DIODE 0.000166126
5 *1436:B *165:51 4.02642e-05
6 *1436:B *166:10 0.000627318
7 *164:12 *1345:A 0
8 *164:12 *1345:D 2.99731e-05
9 *164:12 *1434:A 3.53239e-05
10 *164:12 *1446:C 0.000834704
11 *164:12 *191:16 7.81746e-06
12 *164:12 *218:14 0
13 *1355:B *1436:B 0.000565532
14 *1358:B *164:12 0.000198617
15 *1380:A1 *164:12 6.63219e-06
16 *1405:A *164:12 0
17 *20:8 *1436:B 0.000381866
18 *28:10 *164:12 0
19 *136:8 *164:12 0
20 *151:12 *164:12 0
*RES
1 *1434:X *164:12 41.195 
2 *164:12 *1436:B 17.005 
*END

*D_NET *165 0.0197157
*CONN
*I *1436:C I *D sky130_fd_sc_hd__and3_1
*I *234:DIODE I *D sky130_fd_sc_hd__diode_2
*I *1440:A2 I *D sky130_fd_sc_hd__a221oi_1
*I *1435:Y O *D sky130_fd_sc_hd__nand2_1
*CAP
1 *1436:C 3.79903e-05
2 *234:DIODE 8.42508e-05
3 *1440:A2 0.000414249
4 *1435:Y 0.00169256
5 *165:51 0.00250119
6 *165:26 0.00448576
7 *1440:A2 *1347:B 0
8 *1440:A2 *1440:A1 0.00060626
9 *1440:A2 *1440:B1 0.00060459
10 *1440:A2 *204:53 4.18005e-05
11 *165:26 *1347:A_N 3.65662e-05
12 *165:26 *1347:B 0.000133085
13 *165:26 *1364:A2 0.000169871
14 *165:26 *1364:B1 0
15 *165:26 *200:30 0.000944205
16 *165:26 *204:53 0
17 *165:51 *1428:A 1.41165e-05
18 *165:51 *1486:A 2.54268e-05
19 *165:51 *168:30 0.000238452
20 *165:51 *181:151 0.000823569
21 *165:51 *193:20 8.00995e-06
22 *165:51 *193:22 3.33889e-05
23 *1344:B *1440:A2 0.00019532
24 *1344:B *165:26 0.000131525
25 *1402:A *165:26 0.000303888
26 *1428:B *165:51 1.87365e-05
27 *1435:B *165:26 8.23457e-05
28 *1436:B *234:DIODE 0.000166126
29 *1436:B *165:51 4.02642e-05
30 *1505:D *1440:A2 9.30878e-05
31 *1510:RESET_B *165:26 0
32 *1513:RESET_B *165:26 1.7211e-05
33 *1518:RESET_B *165:51 0.00149927
34 *37:24 *165:26 0
35 *49:16 *165:26 0.000305046
36 *76:32 *165:26 0.000484072
37 *76:50 *165:26 0.000804673
38 *97:67 *165:51 0.00172257
39 *100:14 *1440:A2 0.000114719
40 *129:10 *1440:A2 0.000717049
41 *129:10 *165:26 0.000124496
*RES
1 *1435:Y *165:26 44.155 
2 *165:26 *1440:A2 18 
3 *165:26 *165:51 41.405 
4 *165:51 *234:DIODE 3.37 
5 *165:51 *1436:C 2.305 
*END

*D_NET *166 0.00906622
*CONN
*I *1437:A I *D sky130_fd_sc_hd__clkbuf_1
*I *1436:X O *D sky130_fd_sc_hd__and3_1
*CAP
1 *1437:A 0
2 *1436:X 0.00172556
3 *166:10 0.00172556
4 *166:10 *176:12 0.00105038
5 *166:10 *176:41 0.000524977
6 *166:10 *191:16 0.00030948
7 *166:10 *196:22 0.00104381
8 *166:10 *218:30 2.37234e-05
9 *1365:B *166:10 8.08153e-06
10 *1393:C *166:10 0.000150318
11 *1436:B *166:10 0.000627318
12 *1439:A *166:10 0.000185664
13 *1499:D *166:10 0
14 *1506:D *166:10 7.50427e-05
15 *1515:D *166:10 0.00104478
16 *1517:D *166:10 0.00015976
17 *94:16 *166:10 0
18 *146:26 *166:10 0.000411748
*RES
1 *1436:X *166:10 49.71 
2 *166:10 *1437:A 3.6 
*END

*D_NET *167 0.0135296
*CONN
*I *1440:A1 I *D sky130_fd_sc_hd__a221oi_1
*I *1438:Y O *D sky130_fd_sc_hd__inv_2
*CAP
1 *1440:A1 0.000339497
2 *1438:Y 0.00175329
3 *167:18 0.00209279
4 *1440:A1 *1331:A 0.00105203
5 *1440:A1 *1440:B1 0.000236531
6 *167:18 *1438:A 7.03169e-05
7 *167:18 *1452:C1 0.000541706
8 *167:18 *176:41 0.000846453
9 *167:18 *225:12 6.26945e-05
10 *1337:A *167:18 0.000338004
11 *1337:B *167:18 0.000119246
12 *1352:A2 *1440:A1 8.49205e-05
13 *1414:A *167:18 9.50342e-06
14 *1414:B *167:18 2.9798e-05
15 *1414:C *167:18 0.00269557
16 *1425:B *1440:A1 2.97573e-05
17 *1440:A2 *1440:A1 0.00060626
18 *1448:A2 *1440:A1 0.00012282
19 *1452:B1 *167:18 0.000454233
20 *1504:RESET_B *167:18 0.0011518
21 *1524:D *167:18 0.000448151
22 *95:36 *167:18 8.96003e-05
23 *104:16 *1440:A1 1.39525e-05
24 *115:101 *1440:A1 0.000122325
25 *138:12 *1440:A1 0.000218368
*RES
1 *1438:Y *167:18 49.49 
2 *167:18 *1440:A1 19.4 
*END

*D_NET *168 0.0249552
*CONN
*I *1442:C I *D sky130_fd_sc_hd__and3_2
*I *1441:A2 I *D sky130_fd_sc_hd__a21oi_2
*I *1440:B1 I *D sky130_fd_sc_hd__a221oi_1
*I *1439:X O *D sky130_fd_sc_hd__and2_2
*CAP
1 *1442:C 0.00158957
2 *1441:A2 1.36534e-05
3 *1440:B1 0.00041809
4 *1439:X 0.000312209
5 *168:55 0.00218289
6 *168:30 0.0039103
7 *168:8 0.00438409
8 *1440:B1 *1331:A 0.000131783
9 *1440:B1 *1452:A1 5.16418e-05
10 *1440:B1 *1540:A 0.000861559
11 *1441:A2 *1506:CLK 4.66108e-05
12 *1442:C *1442:A 0.00030615
13 *1442:C *170:14 2.49909e-05
14 *168:8 *1379:A 1.74678e-05
15 *168:30 *1336:A2 0
16 *168:30 *1369:A 0.000159501
17 *168:30 *1408:A 1.19928e-05
18 *168:30 *1428:A 0.000159156
19 *168:30 *1443:B 6.62996e-05
20 *168:30 *179:39 1.38811e-05
21 *168:30 *181:44 0.00012003
22 *168:30 *193:22 0.000818483
23 *168:55 *1381:A 0.000412672
24 *168:55 *1456:A 4.82919e-05
25 *168:55 *196:22 1.19928e-05
26 *1331:B *168:30 0.000117391
27 *1352:A1 *1440:B1 5.79844e-05
28 *1384:A *168:30 7.20467e-05
29 *1411:A1 *168:30 0.000627333
30 *1425:B *1440:B1 0.000108761
31 *1439:A *168:8 0.000184999
32 *1439:B *168:8 2.8185e-05
33 *1440:A1 *1440:B1 0.000236531
34 *1440:A2 *1440:B1 0.00060459
35 *1440:B2 *1440:B1 1.69191e-05
36 *1441:A1 *1442:C 2.8585e-06
37 *1448:A2 *1440:B1 0.000171989
38 *1506:RESET_B *1441:A2 4.66108e-05
39 *1525:D *168:30 4.40693e-06
40 *32:16 *168:30 0.000522456
41 *32:16 *168:55 0.00108151
42 *51:8 *1440:B1 0.000447712
43 *94:16 *1442:C 0.000449039
44 *94:16 *168:55 0.000173328
45 *95:36 *168:30 6.6628e-06
46 *97:10 *168:30 8.73389e-06
47 *97:67 *168:30 0.00135631
48 *98:12 *168:55 0.00035018
49 *98:14 *168:30 0.000523545
50 *98:14 *168:55 0.000436512
51 *103:71 *168:30 5.68731e-05
52 *105:130 *1442:C 0.000455896
53 *105:130 *168:55 0.000173328
54 *146:26 *168:30 0.00011616
55 *146:26 *168:55 0.000204619
56 *156:10 *168:30 0
57 *165:51 *168:30 0.000238452
*RES
1 *1439:X *168:8 8.19 
2 *168:8 *168:30 49.9021 
3 *168:30 *1440:B1 21.185 
4 *168:8 *168:55 22.9 
5 *168:55 *1441:A2 4.05 
6 *168:55 *1442:C 24.345 
*END

*D_NET *169 0.0202736
*CONN
*I *1443:B I *D sky130_fd_sc_hd__nor3_1
*I *1441:Y O *D sky130_fd_sc_hd__a21oi_2
*CAP
1 *1443:B 0.00691034
2 *1441:Y 0.00691034
3 *1443:B *1336:A2 0.000144096
4 *1443:B *1527:A 4.2145e-05
5 *1443:B *174:36 0.00113317
6 *1443:B *179:54 7.96104e-06
7 *1443:B *184:12 8.00039e-05
8 *1443:B *184:27 1.09931e-05
9 *1443:B *193:20 0.000106321
10 *1443:B *215:35 5.14486e-05
11 *1443:B *218:30 0.000114835
12 *1331:B *1443:B 0.00205624
13 *1358:C *1443:B 5.08253e-05
14 *1383:A *1443:B 1.79483e-05
15 *1415:A *1443:B 0.00113328
16 *1507:RESET_B *1443:B 0
17 *1513:D *1443:B 0.000374656
18 *43:14 *1443:B 1.88602e-05
19 *87:24 *1443:B 0.000530204
20 *89:16 *1443:B 0.000333806
21 *95:36 *1443:B 3.29837e-05
22 *105:20 *1443:B 0
23 *105:66 *1443:B 0.000106859
24 *139:26 *1443:B 3.99991e-05
25 *146:26 *1443:B 0
26 *168:30 *1443:B 6.62996e-05
*RES
1 *1441:Y *1443:B 28.8084 
*END

*D_NET *170 0.0301654
*CONN
*I *1448:B1 I *D sky130_fd_sc_hd__a21o_1
*I *1443:C I *D sky130_fd_sc_hd__nor3_1
*I *1444:B I *D sky130_fd_sc_hd__or2_1
*I *1445:B I *D sky130_fd_sc_hd__nand2_1
*I *1442:X O *D sky130_fd_sc_hd__and3_2
*CAP
1 *1448:B1 2.03537e-05
2 *1443:C 4.80637e-05
3 *1444:B 1.21986e-05
4 *1445:B 0.00103943
5 *1442:X 0.000479282
6 *170:76 0.00195139
7 *170:64 0.00357097
8 *170:26 0.00242281
9 *170:14 0.00349775
10 *1443:C *1489:A 0.000233781
11 *1444:B *216:54 3.05373e-05
12 *1445:B *1342:C 0.000349913
13 *1445:B *1446:C 9.64323e-05
14 *1445:B *1458:A 0.000601714
15 *1445:B *1519:CLK 0.000199021
16 *1445:B *210:10 4.41356e-05
17 *1445:B *210:33 7.77782e-05
18 *1445:B *215:8 0
19 *1445:B *216:54 0.000197851
20 *1448:B1 *174:36 8.35157e-05
21 *170:14 *187:22 4.20341e-05
22 *170:14 *199:56 0.000446025
23 *170:26 *1336:A2 0.000520975
24 *170:26 *1336:B1 0.00234021
25 *170:26 *1446:B 1.19928e-05
26 *170:26 *1496:CLK 0.000268734
27 *170:26 *183:83 1.0397e-05
28 *170:26 *199:56 0.00161454
29 *170:26 *216:48 3.1835e-05
30 *170:64 *1330:A 0.000227078
31 *170:64 *1525:CLK 6.04372e-05
32 *170:64 *180:58 0.000112597
33 *170:64 *185:12 0.000463006
34 *170:64 *216:32 0.000328279
35 *170:64 *221:10 0.000480808
36 *170:76 *188:8 7.00889e-06
37 *170:76 *198:18 1.13382e-05
38 *1359:A *170:76 0.00152798
39 *1362:B *1444:B 2.68721e-05
40 *1362:B *1445:B 0.000186827
41 *1363:A *1445:B 3.54721e-05
42 *1377:A *1448:B1 8.35157e-05
43 *1380:C1 *170:76 0.000112224
44 *1441:A1 *170:14 1.56428e-05
45 *1442:C *170:14 2.49909e-05
46 *1443:A *1443:C 0.000232111
47 *1448:A2 *170:76 0.000133033
48 *1505:D *170:76 0
49 *1505:RESET_B *170:76 0.000338226
50 *1513:RESET_B *170:76 0.000780874
51 *1519:RESET_B *1445:B 0.000113901
52 *1525:D *170:64 0.000175827
53 *1525:RESET_B *170:64 5.79113e-05
54 *39:22 *170:26 0.000224474
55 *47:28 *170:14 0.000805638
56 *47:28 *170:26 0.000172719
57 *51:8 *170:64 0.000131525
58 *51:8 *170:76 0.000130071
59 *74:20 *170:76 0.00117967
60 *76:32 *170:76 0.000118081
61 *93:14 *170:64 0.00011319
62 *117:24 *170:64 0.000228244
63 *128:22 *170:26 0.000520178
64 *139:47 *170:26 0.00071762
65 *147:84 *170:14 4.43682e-05
*RES
1 *1442:X *170:14 16.2 
2 *170:14 *170:26 47.065 
3 *170:26 *1445:B 29.325 
4 *170:26 *1444:B 4.215 
5 *170:14 *170:64 31.42 
6 *170:64 *170:76 48.165 
7 *170:76 *1443:C 3.775 
8 *170:64 *1448:B1 4.395 
*END

*D_NET *171 0.00964841
*CONN
*I *1446:B I *D sky130_fd_sc_hd__and3_1
*I *1444:X O *D sky130_fd_sc_hd__or2_1
*CAP
1 *1446:B 0.00218485
2 *1444:X 0.00218485
3 *1446:B *1450:B 0
4 *1446:B *1471:A 5.64226e-05
5 *1446:B *1482:A 0.000279872
6 *1446:B *174:36 0.000104086
7 *1446:B *203:33 0.000276897
8 *1446:B *217:10 0.000233373
9 *1334:A *1446:B 0
10 *1420:B1 *1446:B 0.000896453
11 *44:12 *1446:B 0.000193905
12 *87:24 *1446:B 0.00143201
13 *128:22 *1446:B 0.00179369
14 *170:26 *1446:B 1.19928e-05
*RES
1 *1444:X *1446:B 49.35 
*END

*D_NET *172 0.0140648
*CONN
*I *1446:C I *D sky130_fd_sc_hd__and3_1
*I *1445:Y O *D sky130_fd_sc_hd__nand2_1
*CAP
1 *1446:C 0.00403569
2 *1445:Y 0.00403569
3 *1446:C *1445:A 3.32132e-05
4 *1446:C *219:20 0
5 *1446:C *223:29 2.8323e-05
6 *1334:A *1446:C 7.90673e-05
7 *1380:A1 *1446:C 0.000887934
8 *1405:A *1446:C 0
9 *1439:A *1446:C 0.00169582
10 *1439:B *1446:C 0.000884624
11 *1445:B *1446:C 9.64323e-05
12 *1525:RESET_B *1446:C 5.8023e-05
13 *95:12 *1446:C 0.000200037
14 *103:24 *1446:C 0.00114242
15 *115:8 *1446:C 5.28255e-05
16 *136:8 *1446:C 0
17 *164:12 *1446:C 0.000834704
*RES
1 *1445:Y *1446:C 49.2864 
*END

*D_NET *173 0.00719908
*CONN
*I *1447:A I *D sky130_fd_sc_hd__clkbuf_1
*I *1446:X O *D sky130_fd_sc_hd__and3_1
*CAP
1 *1447:A 0.00187226
2 *1446:X 0.00187226
3 *1447:A *1452:C1 8.73389e-06
4 *1447:A *174:36 0.000163692
5 *1452:B1 *1447:A 0.000898279
6 *1524:D *1447:A 0.000212536
7 *44:12 *1447:A 0.000930655
8 *157:14 *1447:A 0.00124068
*RES
1 *1446:X *1447:A 39.39 
*END

*D_NET *174 0.016043
*CONN
*I *1449:C1 I *D sky130_fd_sc_hd__o211a_1
*I *1448:X O *D sky130_fd_sc_hd__a21o_1
*CAP
1 *1449:C1 0.000303802
2 *1448:X 0.0029131
3 *174:36 0.0032169
4 *1449:C1 *1346:C 0.000233593
5 *1449:C1 *1351:C1 0
6 *1449:C1 *1449:A1 0.000711301
7 *1449:C1 *1449:A2 0.000119873
8 *1449:C1 *200:63 0.000142149
9 *174:36 *1336:A1 0.00113849
10 *174:36 *1449:A1 2.79424e-05
11 *174:36 *1471:A 0
12 *174:36 *1482:A 0.000281538
13 *174:36 *179:110 0.000635102
14 *1337:B *174:36 0.000339646
15 *1351:A2 *174:36 0.000341975
16 *1377:A *174:36 0.000178883
17 *1380:A1 *174:36 0.000494044
18 *1383:C *174:36 0.00127733
19 *1391:A *174:36 0.000661914
20 *1443:B *174:36 0.00113317
21 *1446:B *174:36 0.000104086
22 *1447:A *174:36 0.000163692
23 *1448:A1 *174:36 8.23457e-05
24 *1448:B1 *174:36 8.35157e-05
25 *1449:B1 *1449:C1 7.76034e-05
26 *1452:B1 *174:36 0.000145954
27 *1513:D *174:36 0.0003878
28 *1521:D *174:36 0
29 *1524:D *174:36 0.000130527
30 *1526:RESET_B *174:36 0.000139897
31 *31:16 *174:36 0
32 *52:32 *1449:C1 0.000414079
33 *61:24 *174:36 0
34 *87:24 *174:36 0.000133494
35 *104:16 *1449:C1 1.88656e-05
36 *142:28 *174:36 1.0397e-05
*RES
1 *1448:X *174:36 46.2373 
2 *174:36 *1449:C1 15.875 
*END

*D_NET *175 0.0195629
*CONN
*I *1454:A2 I *D sky130_fd_sc_hd__a21oi_1
*I *1451:C I *D sky130_fd_sc_hd__and3b_1
*I *1459:A2 I *D sky130_fd_sc_hd__a21boi_2
*I *1453:B I *D sky130_fd_sc_hd__nor2_1
*I *1450:Y O *D sky130_fd_sc_hd__nor2_2
*CAP
1 *1454:A2 0.000112342
2 *1451:C 0.000386268
3 *1459:A2 0.000393597
4 *1453:B 0.000179605
5 *1450:Y 0.00148294
6 *175:47 0.000880951
7 *175:34 0.00138795
8 *175:14 0.00270253
9 *1451:C *1340:A 0.000300896
10 *1451:C *1451:A_N 9.29176e-05
11 *1451:C *213:33 4.41506e-05
12 *1453:B *193:20 4.41506e-05
13 *1454:A2 *191:30 7.00889e-06
14 *1459:A2 *1333:A1_N 0.00178076
15 *1459:A2 *1333:B2 0.000231521
16 *1459:A2 *1459:A1 2.16917e-05
17 *175:14 *1342:D 0.000870216
18 *175:14 *1355:A 0.000181006
19 *175:14 *1450:A 0.00204286
20 *175:34 *1340:A 0.00067288
21 *175:34 *190:22 0.000204227
22 *175:34 *215:35 0.000294487
23 *175:34 *216:48 0.000164639
24 *175:47 *1340:A 0.000352166
25 *1333:A2_N *1453:B 0.000192125
26 *1333:B1 *1459:A2 0.00141124
27 *1365:A_N *1451:C 5.26364e-05
28 *1365:C *1451:C 0.000459366
29 *1381:B *175:34 0.000210846
30 *1453:A *1453:B 3.74161e-05
31 *1502:RESET_B *175:34 0.000274653
32 *54:30 *1451:C 0.00012398
33 *55:10 *1451:C 0.000713094
34 *55:10 *175:34 0.000661798
35 *55:10 *175:47 0.000345679
36 *70:34 *1451:C 3.90934e-05
37 *98:14 *175:34 0.000209179
*RES
1 *1450:Y *175:14 39.395 
2 *175:14 *175:34 30.735 
3 *175:34 *1453:B 6.825 
4 *175:34 *175:47 4.185 
5 *175:47 *1459:A2 20.61 
6 *175:47 *1451:C 16.62 
7 *175:14 *1454:A2 3.085 
*END

*D_NET *176 0.0178565
*CONN
*I *1452:C1 I *D sky130_fd_sc_hd__a2111o_2
*I *1457:C I *D sky130_fd_sc_hd__or3_1
*I *1451:X O *D sky130_fd_sc_hd__and3b_1
*CAP
1 *1452:C1 0.00148493
2 *1457:C 7.88135e-05
3 *1451:X 0.000759937
4 *176:41 0.00270256
5 *176:12 0.00205637
6 *1452:C1 *189:47 0.00152203
7 *1452:C1 *225:12 0.0010445
8 *1457:C *190:22 0.00026538
9 *176:12 *1451:B 9.55939e-05
10 *176:12 *187:22 0.000158315
11 *176:12 *190:22 0.000111455
12 *176:12 *218:30 0.000898263
13 *176:41 *1342:B 0
14 *176:41 *1438:A 0.000345193
15 *176:41 *191:16 0.000254946
16 *1333:A2_N *176:12 0.0002294
17 *1337:B *1452:C1 3.93162e-05
18 *1393:C *176:41 0.000395485
19 *1397:B *176:41 8.50199e-05
20 *1414:C *1452:C1 0.000750268
21 *1415:A *176:41 3.09703e-05
22 *1429:A *176:41 4.12699e-05
23 *1429:C *176:41 7.22366e-05
24 *1439:A *176:41 0.000187929
25 *1447:A *1452:C1 8.73389e-06
26 *1452:B1 *1452:C1 6.41634e-05
27 *1506:D *176:12 7.33689e-05
28 *32:16 *176:41 0.000424441
29 *94:16 *176:12 8.48849e-05
30 *103:71 *176:41 8.41481e-05
31 *105:45 *176:41 9.01231e-05
32 *107:46 *1457:C 0.000146679
33 *107:46 *176:12 6.71882e-05
34 *146:26 *176:12 0.000121261
35 *146:26 *176:41 0.00011777
36 *166:10 *176:12 0.00105038
37 *166:10 *176:41 0.000524977
38 *167:18 *1452:C1 0.000541706
39 *167:18 *176:41 0.000846453
*RES
1 *1451:X *176:12 30.56 
2 *176:12 *1457:C 4.12 
3 *176:12 *176:41 39.995 
4 *176:41 *1452:C1 33.79 
*END

*D_NET *177 0.00973571
*CONN
*I *1456:A I *D sky130_fd_sc_hd__buf_1
*I *1455:X O *D sky130_fd_sc_hd__or3_1
*CAP
1 *1456:A 0.000262241
2 *1455:X 0.00253768
3 *177:18 0.00279992
4 *1456:A *1381:A 0.000329982
5 *1456:A *1442:A 0.000361513
6 *1456:A *184:8 2.10841e-05
7 *1456:A *196:22 4.71087e-05
8 *177:18 *1345:A 1.0418e-05
9 *177:18 *1455:B 0.000262844
10 *177:18 *1473:A 9.09806e-05
11 *177:18 *1479:A 0.000172526
12 *177:18 *1512:CLK 1.34503e-05
13 *177:18 *193:20 1.08732e-05
14 *1333:B1 *177:18 6.15576e-06
15 *1415:A *177:18 0
16 *1507:RESET_B *177:18 0
17 *1512:D *177:18 0.00167499
18 *1512:RESET_B *177:18 8.12516e-05
19 *80:16 *1456:A 4.77719e-05
20 *80:16 *177:18 0.000956624
21 *86:10 *177:18 0
22 *168:55 *1456:A 4.82919e-05
*RES
1 *1455:X *177:18 43.55 
2 *177:18 *1456:A 8.26 
*END

*D_NET *178 0.0139703
*CONN
*I *1458:A I *D sky130_fd_sc_hd__clkbuf_1
*I *1457:X O *D sky130_fd_sc_hd__or3_1
*CAP
1 *1458:A 0.00239851
2 *1457:X 0.00116214
3 *178:18 0.00356065
4 *1458:A *1496:CLK 3.57083e-05
5 *1458:A *210:10 0.000120059
6 *178:18 *1409:A 1.1561e-05
7 *178:18 *1409:B 0.00014262
8 *178:18 *1450:A 0.000122331
9 *178:18 *1457:B 3.22548e-05
10 *178:18 *201:14 0.00090463
11 *178:18 *201:16 0.00111791
12 *1363:A *1458:A 0.00015877
13 *1381:B *178:18 0.00128467
14 *1389:B *178:18 6.00116e-05
15 *1445:B *1458:A 0.000601714
16 *1496:D *1458:A 0.000482408
17 *1499:D *178:18 0.000100181
18 *1509:D *178:18 0.000207267
19 *1519:D *178:18 0.000499912
20 *1519:RESET_B *1458:A 0.000125424
21 *45:24 *178:18 4.05358e-05
22 *61:24 *1458:A 0.000122817
23 *98:14 *178:18 0.000672217
24 *129:30 *178:18 5.98004e-06
*RES
1 *1457:X *178:18 44.48 
2 *178:18 *1458:A 33.28 
*END

*D_NET *179 0.0415552
*CONN
*I *1468:A I *D sky130_fd_sc_hd__inv_2
*I *1467:A I *D sky130_fd_sc_hd__inv_2
*I *1469:A I *D sky130_fd_sc_hd__inv_2
*I *1463:A I *D sky130_fd_sc_hd__inv_2
*I *1466:A I *D sky130_fd_sc_hd__inv_2
*I *1462:A I *D sky130_fd_sc_hd__inv_2
*I *1465:A I *D sky130_fd_sc_hd__inv_2
*I *1464:A I *D sky130_fd_sc_hd__inv_2
*I *1470:A I *D sky130_fd_sc_hd__inv_2
*I *1461:A I *D sky130_fd_sc_hd__inv_2
*I *1460:X O *D sky130_fd_sc_hd__clkbuf_8
*CAP
1 *1468:A 0.000601559
2 *1467:A 0.000170963
3 *1469:A 2.6247e-05
4 *1463:A 0.000144365
5 *1466:A 0.00123651
6 *1462:A 3.34704e-05
7 *1465:A 8.49651e-05
8 *1464:A 0.000902435
9 *1470:A 4.37577e-05
10 *1461:A 0.000819179
11 *1460:X 0
12 *179:133 0.00019721
13 *179:131 0.00169777
14 *179:110 0.00207787
15 *179:78 0.00133261
16 *179:54 0.00138761
17 *179:52 0.0010859
18 *179:39 0.00208018
19 *179:10 0.00264858
20 *179:4 0.00125334
21 *1461:A *1372:B1 0.000237697
22 *1461:A *1450:B 0.000415929
23 *1461:A *181:31 0.000216827
24 *1461:A *194:24 0.00117755
25 *1461:A *220:55 0.000164554
26 *1461:A *224:59 0.000107796
27 *1461:A *225:29 0.00011895
28 *1463:A *1432:B 0.000380194
29 *1463:A *204:53 2.49909e-05
30 *1463:A *208:61 0.000124724
31 *1464:A *1487:A 4.89395e-05
32 *1464:A *1542:A 0.00225546
33 *1464:A *198:18 0.000211165
34 *1466:A *1364:A1 0
35 *1466:A *1418:A 0.00165967
36 *1466:A *193:28 0.000158845
37 *1466:A *198:18 0.00019711
38 *1466:A *218:90 7.10578e-05
39 *1467:A *207:26 0.000210016
40 *1468:A *1511:CLK 0.000510557
41 *1468:A *206:14 0.00012657
42 *1469:A *207:26 0.00016031
43 *1470:A *1347:A_N 5.83121e-06
44 *1470:A *1539:A 4.11718e-05
45 *179:10 *214:38 6.81984e-05
46 *179:10 *224:59 0.000142463
47 *179:10 *225:39 0.000132184
48 *179:39 *1347:A_N 3.25159e-05
49 *179:39 *181:151 0.000128796
50 *179:52 *1347:A_N 3.21081e-06
51 *179:52 *1539:A 0.00140278
52 *179:52 *181:162 8.23457e-05
53 *179:54 *1418:A 0.000706637
54 *179:54 *198:18 0.000284131
55 *179:78 *1418:A 0.000170746
56 *179:110 *1455:A 0.000260586
57 *179:110 *1531:A 2.06578e-05
58 *179:110 *1534:A 7.69416e-05
59 *179:110 *180:31 0.000175099
60 *179:110 *204:53 4.5783e-05
61 *179:110 *224:14 9.30787e-05
62 *179:131 *1386:B 0.000355315
63 *179:131 *1432:A 0.000116806
64 *179:131 *1479:A 1.0931e-05
65 *179:131 *188:21 7.16962e-05
66 *179:131 *188:31 8.84407e-05
67 *179:131 *204:53 5.23362e-05
68 *179:131 *207:26 0
69 *179:131 *213:33 0
70 *179:131 *224:14 0.000211318
71 *1370:C *1464:A 2.00031e-05
72 *1378:A *1466:A 0
73 *1391:A *179:110 4.36573e-06
74 *1406:B *179:10 7.23533e-05
75 *1406:C *1461:A 0.000199433
76 *1406:C *179:10 0.00039547
77 *1425:C *1461:A 7.23533e-05
78 *1443:B *179:54 7.96104e-06
79 *1495:RESET_B *179:131 0.000440871
80 *1511:RESET_B *1468:A 5.59047e-05
81 *1514:RESET_B *179:110 0
82 *1519:RESET_B *1464:A 0.000334385
83 *1521:RESET_B *179:10 0.000118081
84 *1521:RESET_B *179:110 0.000476529
85 *36:10 *179:54 0.000832038
86 *43:14 *1466:A 8.76406e-05
87 *43:14 *179:54 7.74929e-05
88 *43:14 *179:78 6.5291e-05
89 *44:10 *1466:A 0
90 *49:10 *1466:A 5.68457e-05
91 *54:16 *1468:A 6.07328e-05
92 *61:24 *1461:A 0.000315977
93 *76:32 *179:39 0.000170942
94 *77:12 *179:131 0.000519489
95 *93:8 *179:131 0.000818498
96 *95:68 *1461:A 4.9968e-05
97 *97:10 *179:39 0.00157252
98 *97:67 *1461:A 0.000962518
99 *115:10 *179:10 0.0003712
100 *115:22 *179:10 0.000155593
101 *117:24 *179:110 5.96064e-05
102 *133:10 *179:39 5.20157e-05
103 *142:28 *179:110 7.51352e-05
104 *142:28 *179:131 8.0005e-05
105 *147:76 *1467:A 0.000302981
106 *147:76 *1469:A 0.00016031
107 *149:46 *179:131 0.000678228
108 *168:30 *179:39 1.38811e-05
109 *174:36 *179:110 0.000635102
*RES
1 *1460:X *179:4 1.6 
2 *179:4 *179:10 12.935 
3 *179:10 *1461:A 33.82 
4 *179:10 *179:39 25.23 
5 *179:39 *1470:A 2.395 
6 *179:39 *179:52 15.575 
7 *179:52 *179:54 14.385 
8 *179:54 *1464:A 29.205 
9 *179:54 *1465:A 4.74 
10 *179:52 *179:78 2.145 
11 *179:78 *1462:A 4.05 
12 *179:78 *1466:A 33.96 
13 *179:4 *179:110 20.915 
14 *179:110 *1463:A 7.77 
15 *179:110 *179:131 32.815 
16 *179:131 *179:133 2 
17 *179:133 *1469:A 3.085 
18 *179:133 *1467:A 10.355 
19 *179:131 *1468:A 14.235 
*END

*D_NET *180 0.0314887
*CONN
*I *1480:A I *D sky130_fd_sc_hd__inv_2
*I *1477:A I *D sky130_fd_sc_hd__inv_2
*I *1481:A I *D sky130_fd_sc_hd__inv_2
*I *1478:A I *D sky130_fd_sc_hd__inv_2
*I *1479:A I *D sky130_fd_sc_hd__inv_2
*I *1473:A I *D sky130_fd_sc_hd__inv_2
*I *1476:A I *D sky130_fd_sc_hd__inv_2
*I *1474:A I *D sky130_fd_sc_hd__inv_2
*I *1472:A I *D sky130_fd_sc_hd__inv_2
*I *1475:A I *D sky130_fd_sc_hd__inv_2
*I *1471:X O *D sky130_fd_sc_hd__buf_4
*CAP
1 *1480:A 2.24179e-05
2 *1477:A 0
3 *1481:A 0
4 *1478:A 0
5 *1479:A 0.000415506
6 *1473:A 0.000131017
7 *1476:A 0
8 *1474:A 0.000401686
9 *1472:A 0
10 *1475:A 0.000264119
11 *1471:X 0
12 *180:156 0.000256647
13 *180:125 0.000991043
14 *180:80 0.00100295
15 *180:70 0.00244511
16 *180:58 0.00266945
17 *180:48 0.000536946
18 *180:44 0.000695363
19 *180:31 0.00207701
20 *180:4 0.00203586
21 *1475:A *1392:B1 0.000184249
22 *1475:A *200:50 3.83194e-05
23 *1475:A *206:32 0.000308221
24 *1479:A *1455:B 0.000232411
25 *1479:A *207:16 1.27987e-05
26 *1479:A *213:33 0.000464001
27 *1480:A *185:62 4.66108e-05
28 *180:31 *1349:A1 5.51406e-06
29 *180:31 *1352:B1_N 0.000157221
30 *180:31 *1382:A 9.56017e-06
31 *180:31 *1392:B1 0.000144558
32 *180:31 *1431:A 0.00024358
33 *180:31 *1494:A 0.000351909
34 *180:31 *214:14 0.00026102
35 *180:31 *220:66 0.000242837
36 *180:31 *220:89 0.00162313
37 *180:31 *223:29 0.00026102
38 *180:31 *224:65 0.000346156
39 *180:44 *1452:D1 0.0001319
40 *180:44 *1527:A 0.000141314
41 *180:44 *205:10 0.000707403
42 *180:44 *214:14 0.00015639
43 *180:44 *223:29 0.000147196
44 *180:48 *185:6 0.000167983
45 *180:48 *185:12 8.34371e-05
46 *180:48 *216:32 0.000486179
47 *180:58 *1525:CLK 0.000104875
48 *180:58 *185:12 0.000181301
49 *180:58 *212:23 0.000249537
50 *180:58 *216:32 0.000292695
51 *180:58 *225:39 8.35221e-06
52 *180:70 *1485:A 8.49205e-05
53 *180:70 *1507:CLK 0.000221939
54 *180:70 *189:87 4.41506e-05
55 *180:70 *202:6 2.75229e-05
56 *180:70 *202:57 0.000223736
57 *180:70 *211:46 0.000283383
58 *180:80 *1441:B1 0.00015426
59 *180:80 *215:35 0.000133806
60 *180:125 *1400:B 4.68656e-05
61 *180:125 *1503:CLK 2.2684e-05
62 *180:125 *186:89 2.97897e-05
63 *180:125 *186:91 7.9104e-05
64 *180:125 *199:12 7.61888e-06
65 *180:125 *204:24 0.00046735
66 *180:125 *207:16 8.68767e-06
67 *180:125 *210:91 9.9547e-05
68 *180:125 *225:39 1.58858e-05
69 *180:156 *185:6 0.000142876
70 *180:156 *185:62 0.000189498
71 *180:156 *216:32 0.000194291
72 *1337:A *180:58 0.000339031
73 *1337:B *1475:A 4.77757e-05
74 *1337:B *180:31 0.000309752
75 *1339:B1 *180:58 0
76 *1339:B1 *180:125 0
77 *1349:A3 *1475:A 0.000302119
78 *1383:A *1474:A 4.66108e-05
79 *1383:A *180:80 0.000144732
80 *1391:A *180:31 6.51286e-05
81 *1441:A1 *1473:A 9.20043e-05
82 *1441:A1 *180:70 0.000265628
83 *1441:A1 *180:80 0.000177577
84 *1495:RESET_B *180:125 1.7635e-05
85 *1503:D *180:125 0.000143774
86 *1506:D *1473:A 0.000153816
87 *1506:D *180:70 4.39259e-05
88 *1507:RESET_B *1473:A 0
89 *1507:RESET_B *1474:A 0.000724448
90 *1510:RESET_B *180:156 0.00019898
91 *1511:RESET_B *1479:A 0
92 *1512:RESET_B *1479:A 0.000528284
93 *1514:RESET_B *180:31 2.25592e-05
94 *22:20 *180:70 6.00111e-05
95 *51:8 *180:44 0.000308102
96 *55:10 *180:80 0.000277861
97 *61:24 *1475:A 0.000163608
98 *94:16 *1474:A 0.000876684
99 *103:24 *180:58 8.25865e-05
100 *105:130 *1474:A 0.000242203
101 *130:12 *1474:A 5.30022e-05
102 *138:12 *180:31 0.00102406
103 *156:31 *180:58 0
104 *170:64 *180:58 0.000112597
105 *177:18 *1473:A 9.09806e-05
106 *177:18 *1479:A 0.000172526
107 *179:110 *180:31 0.000175099
108 *179:131 *1479:A 1.0931e-05
*RES
1 *1471:X *180:4 1.6 
2 *180:4 *1475:A 13.085 
3 *180:4 *180:31 48.505 
4 *180:31 *1472:A 1.6 
5 *180:31 *180:44 14.005 
6 *180:44 *180:48 4.95 
7 *180:48 *180:58 12.3275 
8 *180:58 *180:70 25.9325 
9 *180:70 *180:80 13.84 
10 *180:80 *1474:A 18.44 
11 *180:80 *1476:A 1.6 
12 *180:70 *1473:A 8.57 
13 *180:58 *180:125 13.4375 
14 *180:125 *1479:A 16.1 
15 *180:125 *1478:A 1.6 
16 *180:48 *1481:A 1.6 
17 *180:44 *180:156 5.985 
18 *180:156 *1477:A 1.6 
19 *180:156 *1480:A 2.05 
*END

*D_NET *181 0.0379955
*CONN
*I *1489:A I *D sky130_fd_sc_hd__inv_2
*I *1487:A I *D sky130_fd_sc_hd__inv_2
*I *1491:A I *D sky130_fd_sc_hd__inv_2
*I *1486:A I *D sky130_fd_sc_hd__inv_2
*I *1484:A I *D sky130_fd_sc_hd__inv_2
*I *1488:A I *D sky130_fd_sc_hd__inv_2
*I *1492:A I *D sky130_fd_sc_hd__inv_2
*I *1485:A I *D sky130_fd_sc_hd__inv_2
*I *1490:A I *D sky130_fd_sc_hd__inv_2
*I *1483:A I *D sky130_fd_sc_hd__inv_2
*I *1482:X O *D sky130_fd_sc_hd__clkbuf_8
*CAP
1 *1489:A 0.000864916
2 *1487:A 0.0010708
3 *1491:A 0
4 *1486:A 2.1983e-05
5 *1484:A 0.000365796
6 *1488:A 0.000718619
7 *1492:A 0.00144988
8 *1485:A 1.8095e-05
9 *1490:A 0
10 *1483:A 0.000310043
11 *1482:X 0
12 *181:162 0.00208613
13 *181:151 0.00106861
14 *181:124 0.00111662
15 *181:92 0.00270133
16 *181:75 0.00369035
17 *181:58 0.00182572
18 *181:44 0.00154384
19 *181:31 0.000859836
20 *181:4 0.000986563
21 *1483:A *1346:C 2.37234e-05
22 *1483:A *1449:A1 0.000215571
23 *1483:A *1482:A 8.35106e-05
24 *1486:A *193:22 3.69619e-05
25 *1488:A *1327:B 0.000232
26 *181:31 *1372:B1 0.000513519
27 *181:31 *1482:A 7.37711e-05
28 *181:31 *226:6 3.57349e-05
29 *181:31 *226:16 0.000154982
30 *181:58 *1507:CLK 7.9642e-06
31 *181:58 *206:32 0.00103193
32 *181:75 *1357:A 3.60738e-06
33 *181:75 *1455:B 8.92899e-05
34 *181:75 *1507:CLK 0.000659246
35 *181:75 *186:23 0.000153162
36 *181:75 *186:34 0.000383698
37 *181:92 *1327:B 0.000598726
38 *181:92 *188:31 0.000966801
39 *181:151 *1347:B 0.0002113
40 *181:151 *193:22 0.00179344
41 *1335:A *181:31 0.000215632
42 *1344:A *181:151 9.86509e-05
43 *1386:D *1484:A 8.54317e-05
44 *1386:D *1488:A 3.49376e-05
45 *1411:A1 *1487:A 0
46 *1411:A1 *181:151 8.23457e-05
47 *1411:C1 *1487:A 0
48 *1423:A *1487:A 0
49 *1423:B *181:124 4.2444e-05
50 *1426:A *181:58 5.93094e-05
51 *1443:A *1489:A 0.000599797
52 *1443:C *1489:A 0.000233781
53 *1459:B1_N *181:75 0.000167564
54 *1461:A *181:31 0.000216827
55 *1464:A *1487:A 4.89395e-05
56 *1505:D *1489:A 7.25441e-05
57 *1511:D *1484:A 0
58 *1515:D *1492:A 4.8962e-05
59 *1515:RESET_B *1492:A 0.000385017
60 *1516:RESET_B *181:58 0.000529308
61 *1518:D *1487:A 2.61296e-05
62 *1518:D *181:162 0
63 *1518:RESET_B *181:151 0.000109165
64 *1522:RESET_B *181:31 0.000131144
65 *1523:RESET_B *1492:A 0.000653564
66 *1523:RESET_B *181:92 7.32625e-05
67 *1525:D *181:31 2.20014e-05
68 *1525:D *181:44 0.00026259
69 *1528:A *181:58 0.000347378
70 *22:20 *1485:A 8.49205e-05
71 *22:20 *181:75 0
72 *47:12 *181:92 1.91597e-05
73 *48:12 *1483:A 0.000261501
74 *49:16 *181:58 0.000519005
75 *49:16 *181:124 0.000155608
76 *54:30 *1492:A 7.94887e-05
77 *61:24 *181:31 0
78 *68:18 *1483:A 0.000318264
79 *70:34 *181:75 0.000288389
80 *74:20 *1489:A 0.000167164
81 *76:50 *181:75 3.60876e-05
82 *76:50 *181:92 0.000168985
83 *80:16 *1492:A 0.000132821
84 *84:14 *1488:A 0.000470595
85 *87:24 *181:58 0.000452785
86 *87:51 *181:58 0.000192331
87 *87:51 *181:75 1.80792e-05
88 *107:38 *181:58 4.76051e-05
89 *115:30 *1483:A 4.60123e-05
90 *115:30 *181:31 4.60061e-05
91 *133:10 *1487:A 0.000257883
92 *133:10 *181:151 0.000130589
93 *133:10 *181:162 0.000166166
94 *156:10 *181:44 2.3228e-05
95 *156:31 *181:124 0.000132961
96 *165:51 *1486:A 2.54268e-05
97 *165:51 *181:151 0.000823569
98 *168:30 *181:44 0.00012003
99 *179:39 *181:151 0.000128796
100 *179:52 *181:162 8.23457e-05
101 *180:70 *1485:A 8.49205e-05
*RES
1 *1482:X *181:4 1.6 
2 *181:4 *1483:A 14.405 
3 *181:4 *181:31 18.4 
4 *181:31 *1490:A 1.6 
5 *181:31 *181:44 8.56 
6 *181:44 *181:58 29.315 
7 *181:58 *1485:A 4.395 
8 *181:58 *181:75 17.45 
9 *181:75 *1492:A 25.265 
10 *181:75 *181:92 23.15 
11 *181:92 *1488:A 17.34 
12 *181:92 *1484:A 9.87 
13 *181:44 *181:124 7.12 
14 *181:124 *1486:A 2.275 
15 *181:124 *181:151 31.82 
16 *181:151 *1491:A 1.6 
17 *181:151 *181:162 4.94 
18 *181:162 *1487:A 20.775 
19 *181:162 *1489:A 20.655 
*END

*D_NET *182 0.0148944
*CONN
*I *1531:A I *D sky130_fd_sc_hd__clkbuf_16
*I *1532:A I *D sky130_fd_sc_hd__clkbuf_16
*I *1530:A I *D sky130_fd_sc_hd__clkbuf_16
*I *1529:A I *D sky130_fd_sc_hd__clkbuf_16
*I *1528:X O *D sky130_fd_sc_hd__clkbuf_16
*CAP
1 *1531:A 0.000221045
2 *1532:A 0.000434047
3 *1530:A 0.000501471
4 *1529:A 0.000613446
5 *1528:X 0
6 *182:66 0.00150312
7 *182:12 0.00220524
8 *182:6 0.00193835
9 *1529:A *1348:D 6.16226e-06
10 *1529:A *1369:A 0.000918722
11 *1529:A *210:60 2.05641e-05
12 *1530:A *1369:A 7.60507e-05
13 *1530:A *187:34 1.79536e-05
14 *1530:A *199:56 0.000271981
15 *1531:A *1455:A 3.86814e-05
16 *1532:A *1327:A 4.23748e-05
17 *1532:A *1339:A1 9.05827e-05
18 *1532:A *1498:CLK 0.000133662
19 *1532:A *218:90 6.83447e-05
20 *1532:A *224:59 0
21 *182:12 *189:28 1.7635e-05
22 *182:66 *1428:A 0
23 *1332:B *1530:A 9.05535e-05
24 *1337:A *1532:A 1.51783e-05
25 *1358:C *1530:A 0.000348529
26 *1359:A *182:12 0.000463653
27 *1390:C *182:12 5.49584e-05
28 *1390:C *182:66 0
29 *1426:A *1532:A 0.000358895
30 *1433:A2 *1530:A 0
31 *1503:RESET_B *1532:A 0.000337715
32 *1526:RESET_B *1529:A 1.35153e-05
33 *1526:RESET_B *182:12 0.000355057
34 *1528:A *1529:A 0
35 *39:22 *1529:A 0.000893996
36 *88:66 *1530:A 0
37 *95:36 *1530:A 1.92979e-05
38 *107:38 *1532:A 0.000677262
39 *117:24 *1531:A 0.000316807
40 *117:24 *182:66 0.000681639
41 *153:12 *1530:A 0.000629171
42 *156:31 *182:12 1.88656e-05
43 *156:31 *182:66 0.000461663
44 *157:14 *1532:A 1.75833e-05
45 *179:110 *1531:A 2.06578e-05
*RES
1 *1528:X *182:6 3.6 
2 *182:6 *182:12 3.0429 
3 *182:12 *1529:A 8.5365 
4 *182:12 *1530:A 13.6499 
5 *182:6 *182:66 7.1743 
6 *182:66 *1532:A 16.8275 
7 *182:66 *1531:A 5.09163 
*END

*D_NET *183 0.0179939
*CONN
*I *1521:CLK I *D sky130_fd_sc_hd__dfrtp_1
*I *1514:CLK I *D sky130_fd_sc_hd__dfrtp_4
*I *1522:CLK I *D sky130_fd_sc_hd__dfrtp_4
*I *1496:CLK I *D sky130_fd_sc_hd__dfrtp_4
*I *1502:CLK I *D sky130_fd_sc_hd__dfrtp_1
*I *1501:CLK I *D sky130_fd_sc_hd__dfrtp_1
*I *1504:CLK I *D sky130_fd_sc_hd__dfrtp_1
*I *1499:CLK I *D sky130_fd_sc_hd__dfrtp_4
*I *1519:CLK I *D sky130_fd_sc_hd__dfrtp_4
*I *1529:X O *D sky130_fd_sc_hd__clkbuf_16
*CAP
1 *1521:CLK 0.00024215
2 *1514:CLK 0
3 *1522:CLK 2.84905e-05
4 *1496:CLK 0.00079908
5 *1502:CLK 3.71096e-05
6 *1501:CLK 0
7 *1504:CLK 0
8 *1499:CLK 0
9 *1519:CLK 0.000277753
10 *1529:X 0
11 *183:83 0.00112266
12 *183:81 0.000337819
13 *183:77 0.000701564
14 *183:68 0.000814744
15 *183:51 0.000462641
16 *183:20 0.000810995
17 *183:18 0.00129895
18 *183:4 0.000867403
19 *1496:CLK *1336:A2 0.00102741
20 *1519:CLK *1342:C 6.72833e-06
21 *1522:CLK *199:56 4.77757e-05
22 *183:18 *1393:B 6.14605e-05
23 *183:20 *1342:C 0
24 *183:20 *201:16 0
25 *183:51 *193:20 2.37444e-05
26 *183:81 *199:56 0.000116158
27 *183:83 *1348:D 1.54187e-05
28 *183:83 *199:56 0.000656032
29 *1331:B *183:51 0.000100702
30 *1331:B *183:68 0.000183043
31 *1335:A *1522:CLK 8.41307e-05
32 *1355:B *183:18 0.000377138
33 *1363:A *1496:CLK 0.000235382
34 *1381:B *183:18 0.000195326
35 *1383:C *1521:CLK 0.000190403
36 *1383:C *183:77 0.00020951
37 *1405:A *1519:CLK 0.000177023
38 *1405:A *183:18 0.000495818
39 *1405:A *183:20 0.00105765
40 *1407:A *183:20 0
41 *1433:A2 *183:68 0
42 *1439:B *183:68 0.00010058
43 *1439:B *183:77 8.25735e-05
44 *1445:B *1519:CLK 0.000199021
45 *1458:A *1496:CLK 3.57083e-05
46 *1496:D *1496:CLK 7.30505e-05
47 *1496:RESET_B *1496:CLK 0.000880045
48 *1496:RESET_B *183:83 0.000148648
49 *1499:D *1519:CLK 8.32311e-06
50 *1499:D *183:20 0.000113298
51 *1500:D *183:51 1.0129e-05
52 *1521:D *1521:CLK 1.99109e-05
53 *32:16 *183:18 0.000916783
54 *32:16 *183:51 7.44125e-05
55 *45:24 *183:18 0
56 *45:24 *183:20 0
57 *49:16 *183:83 1.84465e-05
58 *54:30 *183:51 3.09233e-05
59 *54:30 *183:68 0.000312731
60 *95:36 *183:51 3.89612e-05
61 *98:14 *183:18 0.000195828
62 *103:71 *183:81 7.06865e-05
63 *105:66 *183:51 2.45662e-05
64 *134:73 *183:18 0.00102399
65 *134:73 *183:51 8.41307e-05
66 *153:12 *183:81 1.7902e-05
67 *153:12 *183:83 0.000171927
68 *170:26 *1496:CLK 0.000268734
69 *170:26 *183:83 1.0397e-05
*RES
1 *1529:X *183:4 1.6 
2 *183:4 *183:18 27.69 
3 *183:18 *183:20 12.345 
4 *183:20 *1519:CLK 9.36 
5 *183:20 *1499:CLK 3.6 
6 *183:18 *1504:CLK 3.6 
7 *183:4 *183:51 4.94 
8 *183:51 *1501:CLK 3.6 
9 *183:51 *183:68 8.75 
10 *183:68 *1502:CLK 2.215 
11 *183:68 *183:77 5.28 
12 *183:77 *183:81 3.38 
13 *183:81 *183:83 8.265 
14 *183:83 *1496:CLK 26.385 
15 *183:83 *1522:CLK 4.395 
16 *183:81 *1514:CLK 3.6 
17 *183:77 *1521:CLK 5.53 
*END

*D_NET *184 0.0129179
*CONN
*I *1516:CLK I *D sky130_fd_sc_hd__dfrtp_2
*I *1513:CLK I *D sky130_fd_sc_hd__dfrtp_4
*I *1526:CLK I *D sky130_fd_sc_hd__dfrtp_4
*I *1500:CLK I *D sky130_fd_sc_hd__dfrtp_2
*I *1533:A I *D sky130_fd_sc_hd__clkbuf_4
*I *1515:CLK I *D sky130_fd_sc_hd__dfrtp_1
*I *1523:CLK I *D sky130_fd_sc_hd__dfrtp_4
*I *1517:CLK I *D sky130_fd_sc_hd__dfrtp_1
*I *1497:CLK I *D sky130_fd_sc_hd__dfrtp_4
*I *1506:CLK I *D sky130_fd_sc_hd__dfrtp_2
*I *1530:X O *D sky130_fd_sc_hd__clkbuf_16
*CAP
1 *1516:CLK 0.000151687
2 *1513:CLK 0
3 *1526:CLK 0.000132529
4 *1500:CLK 7.29121e-05
5 *1533:A 0
6 *1515:CLK 6.3999e-05
7 *1523:CLK 0
8 *1517:CLK 0.000575843
9 *1497:CLK 0.000251982
10 *1506:CLK 0.000234805
11 *1530:X 0
12 *184:99 0.000200296
13 *184:97 0.000899176
14 *184:82 0.000779899
15 *184:59 0.000238727
16 *184:38 0.00118295
17 *184:27 0.000807371
18 *184:12 0.00042918
19 *184:8 0.000325357
20 *184:4 0.000281258
21 *1497:CLK *218:14 7.36361e-05
22 *1497:CLK *218:72 0.000120524
23 *1500:CLK *216:32 1.79174e-05
24 *1506:CLK *1441:B1 2.75145e-05
25 *1517:CLK *1434:A 8.85291e-05
26 *1526:CLK *190:48 8.43317e-05
27 *1526:CLK *210:60 0.000154817
28 *184:8 *1442:A 0.00026102
29 *184:12 *1441:B1 0.00014475
30 *184:12 *215:35 9.50342e-06
31 *184:27 *1441:B1 4.93879e-05
32 *184:38 *1345:D 3.67779e-05
33 *184:59 *213:33 6.5233e-05
34 *184:97 *210:60 0.000233994
35 *184:97 *216:32 0.0002101
36 *184:99 *187:44 0
37 *184:99 *210:60 0.000176306
38 *1332:B *184:97 4.02124e-05
39 *1332:B *184:99 7.9642e-06
40 *1441:A1 *1506:CLK 0.000104148
41 *1441:A2 *1506:CLK 4.66108e-05
42 *1443:B *184:12 8.00039e-05
43 *1443:B *184:27 1.09931e-05
44 *1456:A *184:8 2.10841e-05
45 *1497:D *1497:CLK 0.000269727
46 *1497:RESET_B *1497:CLK 0.000926812
47 *1500:RESET_B *184:97 0.000224308
48 *1506:RESET_B *1506:CLK 3.50118e-05
49 *1509:RESET_B *184:38 0
50 *1509:RESET_B *184:59 0
51 *1513:D *1526:CLK 4.11025e-05
52 *1515:D *1515:CLK 0.000303289
53 *1516:D *1516:CLK 0.000477223
54 *1516:D *184:97 9.92077e-05
55 *1517:RESET_B *1517:CLK 1.16505e-05
56 *1523:D *1515:CLK 0.000304455
57 *1526:D *1526:CLK 4.17521e-05
58 *32:16 *1497:CLK 0.000121023
59 *54:30 *184:82 6.90254e-05
60 *55:10 *184:27 5.63822e-05
61 *55:10 *184:38 0.000301695
62 *55:10 *184:59 3.67561e-05
63 *88:14 *184:82 6.90254e-05
64 *88:66 *1516:CLK 0.000405753
65 *89:16 *184:27 6.20747e-05
66 *89:16 *184:38 0.000194908
67 *109:30 *1526:CLK 4.76263e-05
68 *109:30 *184:99 0.000125783
*RES
1 *1530:X *184:4 1.6 
2 *184:4 *184:8 3.225 
3 *184:8 *184:12 3.89 
4 *184:12 *1506:CLK 7.185 
5 *184:12 *184:27 2.655 
6 *184:27 *1497:CLK 12.33 
7 *184:27 *184:38 9.795 
8 *184:38 *1517:CLK 10.29 
9 *184:38 *184:59 5.21 
10 *184:59 *1523:CLK 1.6 
11 *184:59 *1515:CLK 4.465 
12 *184:8 *1533:A 1.6 
13 *184:4 *184:82 4.87 
14 *184:82 *1500:CLK 2.665 
15 *184:82 *184:97 12.26 
16 *184:97 *184:99 2.145 
17 *184:99 *1526:CLK 6.975 
18 *184:99 *1513:CLK 3.6 
19 *184:97 *1516:CLK 8.19 
*END

*D_NET *185 0.0128936
*CONN
*I *1520:CLK I *D sky130_fd_sc_hd__dfrtp_4
*I *1505:CLK I *D sky130_fd_sc_hd__dfrtp_4
*I *1518:CLK I *D sky130_fd_sc_hd__dfrtp_2
*I *1534:A I *D sky130_fd_sc_hd__clkinv_2
*I *1525:CLK I *D sky130_fd_sc_hd__dfrtp_4
*I *1524:CLK I *D sky130_fd_sc_hd__dfrtp_4
*I *1508:CLK I *D sky130_fd_sc_hd__dfrtp_2
*I *1531:X O *D sky130_fd_sc_hd__clkbuf_16
*CAP
1 *1520:CLK 0.000646123
2 *1505:CLK 0
3 *1518:CLK 0.000346936
4 *1534:A 6.90401e-05
5 *1525:CLK 5.53237e-05
6 *1524:CLK 7.22335e-05
7 *1508:CLK 0.00034906
8 *1531:X 0
9 *185:64 0.000445122
10 *185:62 0.00139314
11 *185:16 0.000543064
12 *185:12 0.000345962
13 *185:6 0.000388682
14 *185:4 0.000799608
15 *1520:CLK *192:16 0
16 *1520:CLK *216:20 0.00023983
17 *1524:CLK *224:59 1.74678e-05
18 *1337:A *1508:CLK 0.000887428
19 *1337:A *185:16 0.000267562
20 *1380:B1 *1518:CLK 0.000186615
21 *1380:B1 *1520:CLK 0.000166397
22 *1380:B1 *185:64 9.37473e-05
23 *1390:C *1508:CLK 2.36272e-05
24 *1390:C *185:16 4.1866e-05
25 *1480:A *185:62 4.66108e-05
26 *1505:D *1518:CLK 0.000245967
27 *1513:RESET_B *1524:CLK 0.000118081
28 *1518:D *1518:CLK 0.000118294
29 *1520:D *1520:CLK 1.1392e-05
30 *1524:D *1508:CLK 0.000840483
31 *1524:D *1524:CLK 5.83121e-06
32 *1526:RESET_B *1518:CLK 0.000190156
33 *43:24 *1508:CLK 0.000122331
34 *61:24 *1508:CLK 7.15674e-05
35 *74:20 *1518:CLK 0.000198945
36 *107:38 *185:16 9.18451e-05
37 *117:24 *1534:A 2.85623e-05
38 *117:24 *185:6 0.000546765
39 *117:24 *185:12 4.66108e-05
40 *117:24 *185:62 0.00117205
41 *142:28 *1534:A 0.000173284
42 *154:12 *1518:CLK 0
43 *155:8 *1520:CLK 1.56428e-05
44 *170:64 *1525:CLK 6.04372e-05
45 *170:64 *185:12 0.000463006
46 *179:110 *1534:A 7.69416e-05
47 *180:48 *185:6 0.000167983
48 *180:48 *185:12 8.34371e-05
49 *180:58 *1525:CLK 0.000104875
50 *180:58 *185:12 0.000181301
51 *180:156 *185:6 0.000142876
52 *180:156 *185:62 0.000189498
*RES
1 *1531:X *185:4 1.6 
2 *185:4 *185:6 5.28 
3 *185:6 *185:12 5.4 
4 *185:12 *185:16 5.42 
5 *185:16 *1508:CLK 15.555 
6 *185:16 *1524:CLK 5.1 
7 *185:12 *1525:CLK 3.1 
8 *185:6 *1534:A 7.745 
9 *185:4 *185:62 15.905 
10 *185:62 *185:64 2.145 
11 *185:64 *1518:CLK 13.44 
12 *185:64 *1505:CLK 3.6 
13 *185:62 *1520:CLK 13.275 
*END

*D_NET *186 0.0136265
*CONN
*I *1510:CLK I *D sky130_fd_sc_hd__dfrtp_2
*I *1498:CLK I *D sky130_fd_sc_hd__dfrtp_2
*I *1535:A I *D sky130_fd_sc_hd__clkbuf_4
*I *1503:CLK I *D sky130_fd_sc_hd__dfrtp_4
*I *1511:CLK I *D sky130_fd_sc_hd__dfrtp_4
*I *1509:CLK I *D sky130_fd_sc_hd__dfrtp_2
*I *1495:CLK I *D sky130_fd_sc_hd__dfrtp_4
*I *1512:CLK I *D sky130_fd_sc_hd__dfrtp_4
*I *1507:CLK I *D sky130_fd_sc_hd__dfrtp_4
*I *1532:X O *D sky130_fd_sc_hd__clkbuf_16
*CAP
1 *1510:CLK 5.28425e-05
2 *1498:CLK 0.000167696
3 *1535:A 0
4 *1503:CLK 0.000283968
5 *1511:CLK 0.000404469
6 *1509:CLK 0.000425427
7 *1495:CLK 1.71066e-05
8 *1512:CLK 4.82036e-05
9 *1507:CLK 0.000388917
10 *1532:X 0
11 *186:117 0.000419266
12 *186:91 0.000367275
13 *186:89 0.00037285
14 *186:47 0.00106362
15 *186:34 0.000565581
16 *186:23 0.000431064
17 *186:8 0.000552619
18 *186:4 0.000186411
19 *1498:CLK *1327:A 0.000135006
20 *1498:CLK *199:107 2.67275e-05
21 *1503:CLK *199:107 8.52883e-05
22 *1509:CLK *1341:A1 5.05716e-06
23 *1509:CLK *1527:A 0.000109836
24 *1509:CLK *204:10 1.56428e-05
25 *1509:CLK *206:14 6.71882e-05
26 *1509:CLK *207:36 9.68287e-05
27 *1510:CLK *1435:A 7.14699e-05
28 *1510:CLK *207:81 2.76356e-05
29 *1511:CLK *206:14 1.46828e-05
30 *1512:CLK *1345:A 8.83862e-05
31 *186:8 *1357:A 0.000119762
32 *186:8 *1357:B 0.000161467
33 *186:8 *1400:B 0.000493202
34 *186:8 *1455:B 0.000122331
35 *186:8 *198:16 9.80943e-06
36 *186:8 *205:50 3.76642e-05
37 *186:47 *206:14 4.48373e-06
38 *186:89 *1357:B 0.000112963
39 *186:89 *1400:B 0.00023692
40 *186:89 *199:12 0.000121643
41 *186:89 *199:27 1.07563e-05
42 *186:91 *199:27 4.37057e-05
43 *186:117 *1435:A 0.000192125
44 *186:117 *205:50 0.000347109
45 *186:117 *207:81 3.03684e-05
46 *1354:A *186:34 0.000322861
47 *1424:A *1498:CLK 0.000158066
48 *1424:A *1503:CLK 0.000111011
49 *1468:A *1511:CLK 0.000510557
50 *1495:D *1495:CLK 5.05521e-05
51 *1506:D *1507:CLK 0.000150557
52 *1509:RESET_B *1509:CLK 9.17602e-05
53 *1511:D *1511:CLK 7.60965e-05
54 *1511:RESET_B *1511:CLK 2.53494e-05
55 *1511:RESET_B *186:34 0
56 *1511:RESET_B *186:47 0
57 *1512:D *1512:CLK 6.97202e-05
58 *1516:RESET_B *1507:CLK 0.000685354
59 *1516:RESET_B *186:23 7.35126e-05
60 *1516:RESET_B *186:34 0.000153822
61 *1516:RESET_B *186:47 6.00003e-05
62 *1532:A *1498:CLK 0.000133662
63 *22:20 *186:34 0
64 *54:16 *1511:CLK 0.000192185
65 *54:16 *186:47 3.79962e-05
66 *55:10 *1509:CLK 0.000431803
67 *55:10 *1511:CLK 5.83121e-06
68 *106:29 *1495:CLK 8.65961e-05
69 *106:29 *186:34 7.13792e-05
70 *106:29 *186:47 2.14129e-05
71 *177:18 *1512:CLK 1.34503e-05
72 *180:70 *1507:CLK 0.000221939
73 *180:125 *1503:CLK 2.2684e-05
74 *180:125 *186:89 2.97897e-05
75 *180:125 *186:91 7.9104e-05
76 *181:58 *1507:CLK 7.9642e-06
77 *181:75 *1507:CLK 0.000659246
78 *181:75 *186:23 0.000153162
79 *181:75 *186:34 0.000383698
*RES
1 *1532:X *186:4 1.6 
2 *186:4 *186:8 6.59 
3 *186:8 *1507:CLK 15.09 
4 *186:8 *186:23 1.89 
5 *186:23 *1512:CLK 5.085 
6 *186:23 *186:34 8.265 
7 *186:34 *1495:CLK 4.395 
8 *186:34 *186:47 6.185 
9 *186:47 *1509:CLK 14.21 
10 *186:47 *1511:CLK 15.35 
11 *186:4 *186:89 5.045 
12 *186:89 *186:91 1.89 
13 *186:91 *1503:CLK 7.53 
14 *186:91 *1535:A 3.6 
15 *186:89 *186:117 6.245 
16 *186:117 *1498:CLK 9.41 
17 *186:117 *1510:CLK 2.755 
*END

*D_NET *187 0.0351527
*CONN
*I *1451:B I *D sky130_fd_sc_hd__and3b_1
*I *1327:C I *D sky130_fd_sc_hd__and3_2
*I *1455:C I *D sky130_fd_sc_hd__or3_1
*I *1339:A2 I *D sky130_fd_sc_hd__a21oi_1
*I *1338:B1 I *D sky130_fd_sc_hd__a21oi_1
*I *1332:A I *D sky130_fd_sc_hd__nor2_1
*I *1454:A1 I *D sky130_fd_sc_hd__a21oi_1
*I *1336:A2 I *D sky130_fd_sc_hd__a21oi_1
*I *1523:Q O *D sky130_fd_sc_hd__dfrtp_4
*CAP
1 *1451:B 5.16143e-05
2 *1327:C 0.00120601
3 *1455:C 0
4 *1339:A2 0.000158531
5 *1338:B1 0
6 *1332:A 0
7 *1454:A1 0.000705733
8 *1336:A2 0.00217828
9 *1523:Q 0.000419523
10 *187:145 0.00156326
11 *187:128 0.00108568
12 *187:111 0.00126709
13 *187:44 0.00358563
14 *187:34 0.00110772
15 *187:22 0.00188021
16 *187:12 0.00124806
17 *1327:C *1327:A 0.0015805
18 *1327:C *1455:A 0.000309618
19 *1327:C *192:16 0.000310397
20 *1336:A2 *1336:B1 0.000227827
21 *1336:A2 *1369:A 3.81256e-05
22 *1339:A2 *1339:A1 0.000324331
23 *1339:A2 *1350:A 2.89036e-05
24 *1339:A2 *1381:A 1.83756e-05
25 *1339:A2 *1432:A 0.00011492
26 *1339:A2 *224:14 1.19928e-05
27 *1339:A2 *224:59 7.05574e-05
28 *1454:A1 *191:30 0.000192125
29 *1454:A1 *196:22 1.91763e-05
30 *1454:A1 *208:16 0
31 *187:22 *1345:B 0.00156733
32 *187:22 *199:56 0.000242586
33 *187:34 *1369:A 8.23457e-05
34 *187:34 *1442:A 8.23457e-05
35 *187:34 *199:56 0.000340787
36 *187:44 *208:16 0.000258077
37 *187:111 *1338:A1 0.00026617
38 *187:111 *189:95 8.34281e-06
39 *187:128 *1328:A 8.57024e-05
40 *187:128 *189:95 2.0514e-05
41 *187:145 *1327:A 0.000223522
42 *187:145 *1339:A1 0.000261345
43 *187:145 *1432:A 0.000694562
44 *187:145 *1455:A 4.82863e-05
45 *187:145 *1455:B 1.56428e-05
46 *187:145 *207:81 0.000139238
47 *1328:B *187:128 0.000134954
48 *1332:B *187:34 2.2142e-05
49 *1335:A *1336:A2 0
50 *1338:A2 *187:111 1.91597e-05
51 *1339:B1 *187:128 2.04754e-05
52 *1384:A *1336:A2 0
53 *1433:A2 *1336:A2 6.25977e-05
54 *1433:A2 *187:44 0
55 *1439:A *1454:A1 0.0010322
56 *1441:A1 *187:22 0.000426124
57 *1441:A1 *187:34 0.000133188
58 *1443:B *1336:A2 0.000144096
59 *1449:B1 *1336:A2 1.42807e-05
60 *1454:B1 *1454:A1 0.000127302
61 *1496:CLK *1336:A2 0.00102741
62 *1507:RESET_B *1454:A1 0
63 *1512:D *187:22 0.001569
64 *1513:D *1336:A2 0.000833453
65 *1514:D *187:111 2.59934e-06
66 *1515:D *187:12 5.73801e-05
67 *1516:D *187:34 0.00027512
68 *1530:A *187:34 1.79536e-05
69 *47:28 *187:22 0
70 *50:30 *187:111 0.000359519
71 *52:32 *1336:A2 7.43862e-05
72 *53:18 *1339:A2 8.57024e-05
73 *76:50 *1327:C 0.000442531
74 *80:16 *187:34 0.000114958
75 *84:20 *187:128 0.000509187
76 *85:10 *187:128 8.40269e-05
77 *88:66 *187:44 3.88509e-05
78 *94:16 *1451:B 0.000181584
79 *94:16 *1454:A1 1.66925e-05
80 *94:16 *187:22 0.0002989
81 *95:36 *1336:A2 0.000200354
82 *95:36 *187:34 0.000286321
83 *109:30 *187:44 2.96627e-05
84 *115:30 *1336:A2 0.000293598
85 *115:34 *1336:A2 8.49205e-05
86 *117:24 *187:34 0.000190715
87 *134:37 *187:12 7.30505e-05
88 *134:73 *1336:A2 0.00038006
89 *141:14 *1339:A2 1.79483e-05
90 *144:14 *1336:A2 0.000378906
91 *153:12 *187:22 0.000139507
92 *153:12 *187:34 9.40074e-05
93 *168:30 *1336:A2 0
94 *170:14 *187:22 4.20341e-05
95 *170:26 *1336:A2 0.000520975
96 *176:12 *1451:B 9.55939e-05
97 *176:12 *187:22 0.000158315
98 *184:99 *187:44 0
*RES
1 *1523:Q *187:12 8.655 
2 *187:12 *187:22 30.79 
3 *187:22 *187:34 15.43 
4 *187:34 *187:44 3.82017 
5 *187:44 *1336:A2 45.8633 
6 *187:44 *1454:A1 8.55783 
7 *187:34 *1332:A 3.6 
8 *187:22 *187:111 12.245 
9 *187:111 *1338:B1 1.6 
10 *187:111 *187:128 11.66 
11 *187:128 *1339:A2 8.325 
12 *187:128 *187:145 11.66 
13 *187:145 *1455:C 1.6 
14 *187:145 *1327:C 35.6 
15 *187:12 *1451:B 5.745 
*END

*D_NET *188 0.0392875
*CONN
*I *1327:B I *D sky130_fd_sc_hd__and3_2
*I *1459:A1 I *D sky130_fd_sc_hd__a21boi_2
*I *1336:B1 I *D sky130_fd_sc_hd__a21oi_1
*I *1457:B I *D sky130_fd_sc_hd__or3_1
*I *1330:B I *D sky130_fd_sc_hd__nor2_2
*I *1451:A_N I *D sky130_fd_sc_hd__and3b_1
*I *1452:A2 I *D sky130_fd_sc_hd__a2111o_2
*I *1524:Q O *D sky130_fd_sc_hd__dfrtp_4
*CAP
1 *1327:B 0.00139309
2 *1459:A1 6.53606e-05
3 *1336:B1 0.00129235
4 *1457:B 0.00101481
5 *1330:B 2.97e-05
6 *1451:A_N 0.000142362
7 *1452:A2 0.000589135
8 *1524:Q 7.26027e-05
9 *188:65 0.00306355
10 *188:59 0.00112546
11 *188:37 0.00075524
12 *188:31 0.00204532
13 *188:21 0.00335128
14 *188:8 0.0014615
15 *1451:A_N *213:33 0.000571216
16 *1457:B *190:22 0.000751251
17 *1457:B *208:16 8.6076e-05
18 *1457:B *208:41 0.000123642
19 *1457:B *216:48 0.000118081
20 *1457:B *218:30 0.000162889
21 *1459:A1 *1333:A1_N 8.23457e-05
22 *1459:A1 *1400:B 0.00015639
23 *188:21 *206:49 1.88602e-05
24 *188:31 *213:33 0.000272318
25 *188:37 *213:33 0.0011368
26 *188:59 *208:108 0
27 *188:65 *1333:A1_N 2.62104e-05
28 *188:65 *1375:A 0.00051145
29 *188:65 *203:33 0.000155491
30 *188:65 *208:41 8.5002e-05
31 *188:65 *218:72 0.000115254
32 *188:65 *221:10 0.000365843
33 *188:65 *226:16 0.000149502
34 *188:65 *226:27 9.99049e-05
35 *1333:B1 *1459:A1 1.34503e-05
36 *1336:A2 *1336:B1 0.000227827
37 *1346:D *1336:B1 0.000127057
38 *1351:A2 *1336:B1 4.77807e-05
39 *1352:A1 *1452:A2 0.00167735
40 *1352:A1 *188:21 0.000137069
41 *1362:A *188:65 1.79483e-05
42 *1365:A_N *1451:A_N 0.000798403
43 *1365:A_N *188:37 0.000297964
44 *1391:A *1452:A2 0.000425177
45 *1395:B *1336:B1 0.000120325
46 *1433:A1 *188:65 0.000104583
47 *1448:A2 *1452:A2 0.000109207
48 *1451:C *1451:A_N 9.29176e-05
49 *1459:A2 *1459:A1 2.16917e-05
50 *1488:A *1327:B 0.000232
51 *1495:RESET_B *188:59 5.80636e-05
52 *1495:RESET_B *188:65 0.000532093
53 *1513:D *1457:B 8.3303e-06
54 *1513:RESET_B *1457:B 0.000187835
55 *1513:RESET_B *188:8 3.7445e-05
56 *1513:RESET_B *188:65 5.92381e-05
57 *1515:RESET_B *188:59 0
58 *1521:D *1336:B1 0
59 *1522:D *1336:B1 0.00025614
60 *22:20 *188:31 0.000564433
61 *39:22 *1336:B1 0.000133537
62 *47:28 *1336:B1 0.00102903
63 *50:30 *188:65 4.10051e-05
64 *52:32 *1336:B1 7.27194e-05
65 *54:30 *1330:B 0
66 *57:16 *1336:B1 3.95359e-05
67 *70:34 *188:59 6.9789e-05
68 *76:50 *188:31 0.000136126
69 *84:14 *1327:B 0.00112342
70 *86:10 *1330:B 4.99581e-05
71 *93:14 *188:21 0.000882811
72 *107:46 *1457:B 0.000378497
73 *109:30 *1457:B 0.000334275
74 *109:30 *188:65 0.000470869
75 *138:12 *1452:A2 9.87627e-06
76 *142:28 *1452:A2 0.000738304
77 *142:28 *188:21 0.000845335
78 *143:18 *1336:B1 4.89395e-05
79 *147:76 *188:21 4.94993e-05
80 *147:84 *188:59 0.00058914
81 *147:84 *188:65 0.000150825
82 *149:46 *188:21 0.000444281
83 *170:26 *1336:B1 0.00234021
84 *170:76 *188:8 7.00889e-06
85 *178:18 *1457:B 3.22548e-05
86 *179:131 *188:21 7.16962e-05
87 *179:131 *188:31 8.84407e-05
88 *181:92 *1327:B 0.000598726
89 *181:92 *188:31 0.000966801
*RES
1 *1524:Q *188:8 4.74 
2 *188:8 *1452:A2 23.85 
3 *188:8 *188:21 25.055 
4 *188:21 *188:31 23.965 
5 *188:31 *188:37 11.955 
6 *188:37 *1451:A_N 8.95 
7 *188:37 *1330:B 6.215 
8 *188:31 *188:59 9.245 
9 *188:59 *188:65 23.78 
10 *188:65 *1457:B 23.38 
11 *188:65 *1336:B1 40.58 
12 *188:59 *1459:A1 5.445 
13 *188:21 *1327:B 23.215 
*END

*D_NET *189 0.0359894
*CONN
*I *1328:A I *D sky130_fd_sc_hd__nand2_1
*I *1455:B I *D sky130_fd_sc_hd__or3_1
*I *1333:B2 I *D sky130_fd_sc_hd__o2bb2a_1
*I *1452:A1 I *D sky130_fd_sc_hd__a2111o_2
*I *1331:A I *D sky130_fd_sc_hd__nand2_2
*I *1450:B I *D sky130_fd_sc_hd__nor2_2
*I *1525:Q O *D sky130_fd_sc_hd__dfrtp_4
*CAP
1 *1328:A 1.93617e-05
2 *1455:B 0.000553641
3 *1333:B2 0.00173714
4 *1452:A1 1.41437e-05
5 *1331:A 0.00139337
6 *1450:B 0.00131541
7 *1525:Q 0
8 *189:95 0.00257583
9 *189:87 0.000672626
10 *189:47 0.00248138
11 *189:28 0.00368952
12 *189:6 0.00166845
13 *1331:A *1540:A 0.000294916
14 *1333:B2 *1333:A1_N 9.8639e-05
15 *1450:B *1372:B1 1.60203e-05
16 *1450:B *1450:A 3.7837e-05
17 *1450:B *1471:A 1.52184e-05
18 *1450:B *1482:A 0.000160635
19 *1450:B *191:66 7.32549e-05
20 *1450:B *220:12 0.000128957
21 *1450:B *220:55 0.000182533
22 *1455:B *1345:A 6.62684e-05
23 *1455:B *1357:A 7.9642e-06
24 *1455:B *1400:B 5.88334e-05
25 *1455:B *198:16 8.63479e-05
26 *1455:B *206:16 6.14912e-05
27 *1455:B *213:33 0.000376504
28 *189:28 *1428:A 0.000173284
29 *189:28 *221:37 0.000305658
30 *189:87 *1428:A 0.000103314
31 *189:95 *1338:A1 6.00027e-05
32 *189:95 *206:16 0.000271979
33 *189:95 *206:24 0.000180999
34 *1329:B *189:28 0.000307328
35 *1333:A2_N *1333:B2 3.81908e-06
36 *1333:B1 *1333:B2 0.00155268
37 *1333:B1 *1455:B 3.33337e-05
38 *1334:A *1450:B 0.000299647
39 *1334:A *189:28 0.000699118
40 *1337:B *1450:B 0
41 *1337:B *189:28 0
42 *1338:A2 *189:95 8.23457e-05
43 *1339:B1 *1328:A 4.21973e-05
44 *1339:B1 *189:95 4.99619e-05
45 *1352:A1 *1331:A 0.000116151
46 *1352:A1 *1452:A1 4.31106e-05
47 *1374:B *1450:B 3.96737e-05
48 *1384:A *1450:B 0.00149041
49 *1398:A *1450:B 0.000215999
50 *1440:A1 *1331:A 0.00105203
51 *1440:B1 *1331:A 0.000131783
52 *1440:B1 *1452:A1 5.16418e-05
53 *1440:B2 *1331:A 8.30403e-05
54 *1440:C1 *1331:A 4.66108e-05
55 *1446:B *1450:B 0
56 *1448:A2 *1331:A 1.0129e-05
57 *1452:C1 *189:47 0.00152203
58 *1459:A2 *1333:B2 0.000231521
59 *1459:B1_N *189:87 7.9642e-06
60 *1461:A *1450:B 0.000415929
61 *1479:A *1455:B 0.000232411
62 *1511:RESET_B *1455:B 0.000192411
63 *1512:RESET_B *1455:B 4.54998e-05
64 *1514:D *189:95 0.000116313
65 *1516:RESET_B *1455:B 6.86726e-05
66 *1516:RESET_B *189:95 0.00044367
67 *1525:RESET_B *189:28 0.000257127
68 *1525:RESET_B *189:87 2.79929e-05
69 *22:20 *1455:B 8.3928e-05
70 *22:20 *189:87 1.90887e-05
71 *49:16 *189:28 0.00027108
72 *51:8 *1331:A 2.90456e-05
73 *85:10 *189:28 0.000476148
74 *85:10 *189:87 0.000459793
75 *87:51 *189:87 0.000212618
76 *88:66 *189:28 0.000269916
77 *89:16 *1333:B2 2.75229e-05
78 *95:12 *1450:B 0.00175469
79 *95:68 *1450:B 0.00163427
80 *95:83 *1450:B 0.000417196
81 *104:16 *1331:A 1.80732e-05
82 *115:101 *1331:A 8.53113e-06
83 *156:10 *189:28 0
84 *156:31 *189:28 0.000846997
85 *177:18 *1455:B 0.000262844
86 *180:70 *189:87 4.41506e-05
87 *181:75 *1455:B 8.92899e-05
88 *182:12 *189:28 1.7635e-05
89 *186:8 *1455:B 0.000122331
90 *187:111 *189:95 8.34281e-06
91 *187:128 *1328:A 8.57024e-05
92 *187:128 *189:95 2.0514e-05
93 *187:145 *1455:B 1.56428e-05
*RES
1 *1525:Q *189:6 3.6 
2 *189:6 *189:28 39.245 
3 *189:28 *1450:B 45.405 
4 *189:28 *189:47 18.25 
5 *189:47 *1331:A 25.305 
6 *189:47 *1452:A1 4.215 
7 *189:6 *189:87 13.575 
8 *189:87 *189:95 10.34 
9 *189:95 *1333:B2 25.785 
10 *189:95 *1455:B 22.585 
11 *189:87 *1328:A 2.395 
*END

*D_NET *190 0.034033
*CONN
*I *1330:A I *D sky130_fd_sc_hd__nor2_2
*I *1452:D1 I *D sky130_fd_sc_hd__a2111o_2
*I *1329:A I *D sky130_fd_sc_hd__xnor2_1
*I *1455:A I *D sky130_fd_sc_hd__or3_1
*I *1457:A I *D sky130_fd_sc_hd__or3_1
*I *1450:A I *D sky130_fd_sc_hd__nor2_2
*I *1526:Q O *D sky130_fd_sc_hd__dfrtp_4
*CAP
1 *1330:A 0.00124622
2 *1452:D1 0.00070295
3 *1329:A 2.21004e-05
4 *1455:A 0.000870626
5 *1457:A 0
6 *1450:A 0.00123434
7 *1526:Q 5.90468e-05
8 *190:73 0.000836272
9 *190:58 0.0016273
10 *190:48 0.00286003
11 *190:22 0.00193733
12 *190:8 0.0017304
13 *1330:A *1381:A 0.000192125
14 *1330:A *1400:A 5.90496e-05
15 *1330:A *202:57 6.43653e-05
16 *1330:A *208:41 0.000273983
17 *1330:A *210:60 0.000252775
18 *1330:A *213:33 0.000235335
19 *1330:A *221:10 9.86509e-05
20 *1450:A *1341:B1 0.000679012
21 *1450:A *1342:D 2.61765e-05
22 *1450:A *219:20 0.000492925
23 *1452:D1 *1347:D 0.000114345
24 *1452:D1 *1527:A 0.000115365
25 *1452:D1 *1540:A 1.02692e-05
26 *1452:D1 *203:12 0.000246105
27 *1452:D1 *205:10 0.000410931
28 *1452:D1 *221:37 0.000110774
29 *1455:A *1386:B 0.0001767
30 *1455:A *207:81 0.00011577
31 *1455:A *224:14 7.37621e-05
32 *190:22 *215:35 0.000157608
33 *190:58 *202:57 5.07362e-05
34 *190:58 *221:37 0.00016312
35 *190:73 *221:37 1.19928e-05
36 *231:DIODE *1450:A 0.000122801
37 *1327:C *1455:A 0.000309618
38 *1329:B *190:58 0.000730954
39 *1329:B *190:73 0.000109377
40 *1337:A *1455:A 0.00045166
41 *1365:A_N *1330:A 0.00140508
42 *1365:C *1330:A 0.000444142
43 *1433:A2 *190:48 8.23457e-05
44 *1450:B *1450:A 3.7837e-05
45 *1457:B *190:22 0.000751251
46 *1457:C *190:22 0.00026538
47 *1498:D *1455:A 0.000499607
48 *1509:D *1450:A 0.000773638
49 *1514:RESET_B *1455:A 0.000536879
50 *1516:D *1330:A 0.00109894
51 *1524:RESET_B *1455:A 0
52 *1526:CLK *190:48 8.43317e-05
53 *1526:D *190:48 3.15819e-05
54 *1526:D *190:58 0.00201542
55 *1526:D *190:73 7.66083e-05
56 *1531:A *1455:A 3.86814e-05
57 *51:8 *1452:D1 0.00148227
58 *68:18 *190:58 1.66913e-05
59 *76:50 *1455:A 0.000194963
60 *80:16 *1330:A 0.000193801
61 *86:10 *1330:A 0
62 *95:98 *1452:D1 0
63 *107:46 *1450:A 0.000660463
64 *107:46 *190:22 0.000361509
65 *149:14 *1455:A 0.000127052
66 *153:12 *1330:A 0.000251353
67 *159:26 *1330:A 0.000403023
68 *159:26 *190:58 6.85268e-05
69 *170:64 *1330:A 0.000227078
70 *175:14 *1450:A 0.00204286
71 *175:34 *190:22 0.000204227
72 *176:12 *190:22 0.000111455
73 *178:18 *1450:A 0.000122331
74 *179:110 *1455:A 0.000260586
75 *180:44 *1452:D1 0.0001319
76 *187:145 *1455:A 4.82863e-05
*RES
1 *1526:Q *190:8 2.665 
2 *190:8 *190:22 18.205 
3 *190:22 *1450:A 43.745 
4 *190:22 *1457:A 1.6 
5 *190:8 *190:48 12.455 
6 *190:48 *190:58 22.415 
7 *190:58 *1455:A 29.825 
8 *190:58 *190:73 2.175 
9 *190:73 *1329:A 1.96 
10 *190:73 *1452:D1 25.73 
11 *190:48 *1330:A 45.83 
*END

*D_NET *191 0.0324384
*CONN
*I *1493:A I *D sky130_fd_sc_hd__inv_2
*I *1471:A I *D sky130_fd_sc_hd__buf_4
*I *1482:A I *D sky130_fd_sc_hd__clkbuf_8
*I *1494:A I *D sky130_fd_sc_hd__inv_2
*I *1460:A I *D sky130_fd_sc_hd__clkbuf_8
*I *1536:X O *D sky130_fd_sc_hd__clkbuf_4
*CAP
1 *1493:A 4.30242e-05
2 *1471:A 0.000369456
3 *1482:A 0.000673875
4 *1494:A 0.00115481
5 *1460:A 0
6 *1536:X 0.00152837
7 *191:66 0.00133514
8 *191:43 0.00198441
9 *191:41 0.00113175
10 *191:30 0.00315348
11 *191:16 0.00413092
12 *1494:A *1349:A1 8.33066e-06
13 *1494:A *1382:A 0.000194969
14 *1494:A *1392:B1 0.000375508
15 *1494:A *220:66 7.30547e-05
16 *191:16 *1434:A 0.00086603
17 *191:30 *226:16 0.000273572
18 *191:41 *214:38 8.23457e-05
19 *191:41 *220:89 0.000476586
20 *191:43 *220:66 0.000174279
21 *191:43 *220:89 0.000997883
22 *191:66 *207:122 0.000163255
23 *1337:B *1471:A 9.50342e-06
24 *1366:A *191:16 0.000517397
25 *1374:B *1482:A 0.00015896
26 *1374:B *191:66 0.00127441
27 *1382:B *1494:A 2.49909e-05
28 *1383:C *1494:A 0.000194921
29 *1383:C *191:30 5.19004e-05
30 *1401:A *1494:A 0.000201508
31 *1401:C *1494:A 8.99673e-05
32 *1420:A1 *191:43 0.00010347
33 *1420:A2 *191:43 9.0889e-05
34 *1425:A *1482:A 9.53428e-06
35 *1425:C *1482:A 1.70906e-05
36 *1426:A *191:30 0.000275322
37 *1446:A *191:30 5.83121e-06
38 *1446:B *1471:A 5.64226e-05
39 *1446:B *1482:A 0.000279872
40 *1450:B *1471:A 1.52184e-05
41 *1450:B *1482:A 0.000160635
42 *1450:B *191:66 7.32549e-05
43 *1454:A1 *191:30 0.000192125
44 *1454:A2 *191:30 7.00889e-06
45 *1454:B1 *191:30 0.000256208
46 *1483:A *1482:A 8.35106e-05
47 *1508:D *1493:A 4.92062e-05
48 *1514:RESET_B *191:41 9.28013e-05
49 *1515:D *191:16 0.000486505
50 *1517:D *191:16 1.46781e-05
51 *1521:RESET_B *191:30 0.000706837
52 *1521:RESET_B *191:41 0.000703072
53 *31:16 *1471:A 0.000136877
54 *32:16 *191:16 0.00116329
55 *49:16 *1493:A 6.81928e-05
56 *52:16 *1494:A 0.00136515
57 *52:32 *1494:A 1.46744e-05
58 *95:83 *1494:A 0
59 *95:83 *191:43 0
60 *95:83 *191:66 0.00050759
61 *97:18 *1494:A 0
62 *105:70 *191:30 0.000933513
63 *105:74 *191:30 0.000501218
64 *115:28 *1482:A 0.000153627
65 *115:30 *1482:A 9.92625e-05
66 *143:18 *1471:A 0
67 *146:26 *191:16 0.000267548
68 *149:14 *191:41 0.000193149
69 *149:14 *191:43 0.000360751
70 *164:12 *191:16 7.81746e-06
71 *166:10 *191:16 0.00030948
72 *174:36 *1471:A 0
73 *174:36 *1482:A 0.000281538
74 *176:41 *191:16 0.000254946
75 *180:31 *1494:A 0.000351909
76 *181:31 *1482:A 7.37711e-05
*RES
1 *1536:X *191:16 40.16 
2 *191:16 *191:30 40.18 
3 *191:30 *1460:A 1.6 
4 *191:30 *191:41 14.375 
5 *191:41 *191:43 14.385 
6 *191:43 *1494:A 31.17 
7 *191:43 *191:66 14.3 
8 *191:66 *1482:A 17.99 
9 *191:66 *1471:A 12.08 
10 *191:41 *1493:A 4.74 
*END

*D_NET *192 0.0172165
*CONN
*I *1537:A I *D sky130_fd_sc_hd__buf_1
*I *1527:X O *D sky130_fd_sc_hd__buf_1
*CAP
1 *1537:A 0.000703707
2 *1527:X 0.00354786
3 *192:16 0.00254258
4 *192:6 0.00538673
5 *1537:A *214:14 0.000155138
6 *192:6 *1527:A 0.000327875
7 *192:16 *1327:A 0.000376362
8 *192:16 *1421:A1 0.000292059
9 *192:16 *198:18 0.000160851
10 *1327:C *192:16 0.000310397
11 *1378:A *1537:A 0
12 *1380:A1 *1537:A 0.000100267
13 *1380:B1 *192:16 0
14 *1520:CLK *192:16 0
15 *1520:RESET_B *192:16 0
16 *53:10 *192:16 0.000120321
17 *54:16 *192:6 0.00115487
18 *118:20 *192:6 0.00203752
*RES
1 *1527:X *192:6 49.315 
2 *192:6 *192:16 39.78 
3 *192:16 *1537:A 15.69 
*END

*D_NET *193 0.0185954
*CONN
*I *1538:A I *D sky130_fd_sc_hd__buf_1
*I *237:DIODE I *D sky130_fd_sc_hd__diode_2
*I *1453:Y O *D sky130_fd_sc_hd__nor2_1
*CAP
1 *1538:A 0.00037415
2 *237:DIODE 0
3 *1453:Y 0.00118556
4 *193:28 0.000414839
5 *193:22 0.00293488
6 *193:20 0.00407975
7 *193:20 *208:16 1.79483e-05
8 *193:22 *1369:A 0.000154977
9 *193:22 *1428:A 0.00019721
10 *1414:B *193:20 0.000165949
11 *1428:B *193:22 4.93297e-05
12 *1443:B *193:20 0.000106321
13 *1453:B *193:20 4.41506e-05
14 *1466:A *193:28 0.000158845
15 *1486:A *193:22 3.69619e-05
16 *1500:D *193:20 0.00120662
17 *1507:RESET_B *193:20 0
18 *1518:RESET_B *193:22 0.000390999
19 *49:10 *193:28 0.000157543
20 *49:16 *1538:A 4.66108e-05
21 *80:16 *193:20 0.000446174
22 *88:14 *193:20 0.00082448
23 *97:67 *193:22 0.000137288
24 *103:71 *193:20 0.000548451
25 *105:49 *193:20 2.98644e-05
26 *105:66 *193:20 0.000224109
27 *160:8 *193:22 0.0019744
28 *165:51 *193:20 8.00995e-06
29 *165:51 *193:22 3.33889e-05
30 *168:30 *193:22 0.000818483
31 *177:18 *193:20 1.08732e-05
32 *181:151 *193:22 0.00179344
33 *183:51 *193:20 2.37444e-05
*RES
1 *1453:Y *193:20 35.075 
2 *193:20 *193:22 55.305 
3 *193:22 *193:28 5.89 
4 *193:28 *237:DIODE 1.6 
5 *193:28 *1538:A 6.13 
*END

*D_NET *194 0.0179504
*CONN
*I *1539:A I *D sky130_fd_sc_hd__buf_1
*I *1454:Y O *D sky130_fd_sc_hd__a21oi_1
*CAP
1 *1539:A 0.00180505
2 *1454:Y 0.00162216
3 *194:24 0.00361068
4 *194:20 0.00342779
5 *1539:A *1347:A_N 6.07575e-06
6 *194:20 *1348:D 6.90254e-05
7 *194:20 *196:22 9.11577e-05
8 *194:20 *199:62 9.57777e-05
9 *194:24 *225:29 9.17211e-05
10 *1335:A *194:20 0.000257913
11 *1362:A *194:20 2.23107e-05
12 *1362:C *194:20 0.000881707
13 *1387:A *194:20 0.000221339
14 *1417:A *194:20 0.000445824
15 *1429:B *194:24 0.000557022
16 *1430:A *194:20 6.90254e-05
17 *1454:B1 *194:20 5.9448e-05
18 *1461:A *194:24 0.00117755
19 *1470:A *1539:A 4.11718e-05
20 *47:47 *194:20 0.000131525
21 *57:16 *1539:A 0.00107249
22 *57:16 *194:24 6.4843e-05
23 *76:32 *1539:A 4.77719e-05
24 *94:16 *194:20 0.000597585
25 *97:67 *194:24 8.06138e-05
26 *130:12 *194:20 0
27 *179:52 *1539:A 0.00140278
*RES
1 *1454:Y *194:20 37.515 
2 *194:20 *194:24 22.89 
3 *194:24 *1539:A 31.645 
*END

*D_NET *195 0.0259101
*CONN
*I *1527:A I *D sky130_fd_sc_hd__buf_1
*I *1540:A I *D sky130_fd_sc_hd__buf_1
*I *1452:X O *D sky130_fd_sc_hd__a2111o_2
*CAP
1 *1527:A 0.00843122
2 *1540:A 0.001159
3 *1452:X 0
4 *195:6 0.00959022
5 *1527:A *1341:A2 8.24368e-05
6 *1527:A *205:10 0.000407612
7 *1331:A *1540:A 0.000294916
8 *1331:B *1527:A 1.81196e-05
9 *1374:B *1527:A 0.00015532
10 *1378:A *1540:A 2.75145e-05
11 *1416:B *1527:A 0.000331005
12 *1425:B *1540:A 0.00141302
13 *1440:B1 *1540:A 0.000861559
14 *1440:B2 *1540:A 0.000193801
15 *1443:B *1527:A 4.2145e-05
16 *1452:D1 *1527:A 0.000115365
17 *1452:D1 *1540:A 1.02692e-05
18 *1509:CLK *1527:A 0.000109836
19 *1509:D *1527:A 0.000217447
20 *51:8 *1527:A 0.000117824
21 *51:8 *1540:A 0
22 *55:10 *1527:A 0.000258101
23 *95:98 *1527:A 3.82018e-05
24 *95:98 *1540:A 0.000182132
25 *95:109 *1527:A 0.000375079
26 *118:20 *1527:A 0.000248059
27 *120:18 *1527:A 0.000109931
28 *129:10 *1527:A 0.000273231
29 *139:26 *1527:A 0.000377537
30 *146:26 *1527:A 0
31 *180:44 *1527:A 0.000141314
32 *192:6 *1527:A 0.000327875
*RES
1 *1452:X *195:6 3.6 
2 *195:6 *1540:A 29.925 
3 *195:6 *1527:A 21.9319 
*END

*D_NET *196 0.0221814
*CONN
*I *1541:A I *D sky130_fd_sc_hd__buf_1
*I *1456:X O *D sky130_fd_sc_hd__buf_1
*CAP
1 *1541:A 0.00651918
2 *1456:X 0.00201881
3 *196:22 0.00853799
4 *1541:A *1342:B 0
5 *196:22 *1342:B 0
6 *196:22 *1393:B 0.000745762
7 *196:22 *218:30 0.000516844
8 *1346:D *1541:A 0.000153481
9 *1393:C *196:22 0.000668407
10 *1417:A *196:22 0.000240659
11 *1433:A1 *1541:A 0
12 *1454:A1 *196:22 1.91763e-05
13 *1456:A *196:22 4.71087e-05
14 *94:16 *196:22 0.00057597
15 *103:71 *1541:A 0.000296027
16 *103:71 *196:22 0.000225585
17 *105:20 *1541:A 0
18 *115:34 *196:22 0.000174364
19 *146:26 *196:22 0.000295069
20 *166:10 *196:22 0.00104381
21 *168:55 *196:22 1.19928e-05
22 *194:20 *196:22 9.11577e-05
*RES
1 *1456:X *196:22 49.8325 
2 *196:22 *1541:A 18.493 
*END

*D_NET *197 0.0074575
*CONN
*I *1542:A I *D sky130_fd_sc_hd__buf_1
*I *1458:X O *D sky130_fd_sc_hd__clkbuf_1
*CAP
1 *1542:A 0.00257529
2 *1458:X 0.00257529
3 seg[5] *1542:A 5.14723e-05
4 *1464:A *1542:A 0.00225546
*RES
1 *1458:X *1542:A 49.605 
*END

*D_NET *198 0.0192281
*CONN
*I *228:DIODE I *D sky130_fd_sc_hd__diode_2
*I *1543:A I *D sky130_fd_sc_hd__buf_1
*I *1459:Y O *D sky130_fd_sc_hd__a21boi_2
*CAP
1 *228:DIODE 0
2 *1543:A 0.000285238
3 *1459:Y 0.00264551
4 *198:26 0.000587759
5 *198:18 0.00203587
6 *198:16 0.00437886
7 *198:16 *1357:A 4.21973e-05
8 *198:16 *1364:B1 0.000275366
9 *198:16 *199:27 0
10 *198:16 *205:50 4.82863e-05
11 *198:16 *219:14 0.00183556
12 *198:18 *1418:A 0.00284226
13 *1333:B1 *198:16 0.000192125
14 *1358:C *198:16 0.000187397
15 *1359:A *198:18 0
16 *1380:C1 *198:18 0.00116402
17 *1415:A *198:16 0.000794673
18 *1455:B *198:16 8.63479e-05
19 *1464:A *198:18 0.000211165
20 *1466:A *198:18 0.00019711
21 *1505:RESET_B *198:18 0.000183487
22 *22:20 *198:16 6.49533e-05
23 *53:10 *198:18 0.000515099
24 *74:20 *198:18 0.00018867
25 *170:76 *198:18 1.13382e-05
26 *179:54 *198:18 0.000284131
27 *186:8 *198:16 9.80943e-06
28 *192:16 *198:18 0.000160851
*RES
1 *1459:Y *198:16 14.9537 
2 *198:16 *198:18 52.23 
3 *198:18 *198:26 5.2625 
4 *198:26 *1543:A 6.025 
5 *198:26 *228:DIODE 1.6 
*END

*D_NET *199 0.031976
*CONN
*I *1364:A3 I *D sky130_fd_sc_hd__a31o_1
*I *1356:B I *D sky130_fd_sc_hd__nand2_1
*I *1361:A2 I *D sky130_fd_sc_hd__a21o_1
*I *1355:A I *D sky130_fd_sc_hd__nor2_1
*I *1342:D I *D sky130_fd_sc_hd__and4_4
*I *1360:C I *D sky130_fd_sc_hd__nand3_1
*I *1357:B I *D sky130_fd_sc_hd__or2_1
*I *1495:Q O *D sky130_fd_sc_hd__dfrtp_4
*CAP
1 *1364:A3 0.000575999
2 *1356:B 0
3 *1361:A2 0
4 *1355:A 8.60099e-05
5 *1342:D 0.000877995
6 *1360:C 3.16655e-05
7 *1357:B 4.04743e-05
8 *1495:Q 0.000370679
9 *199:107 0.00182122
10 *199:62 0.00222197
11 *199:56 0.00275348
12 *199:42 0.00284913
13 *199:27 0.000297864
14 *199:12 0.000568956
15 *1357:B *205:50 0.000274431
16 *1360:C *1360:B 1.67131e-05
17 *1360:C *210:91 5.26465e-05
18 *1360:C *218:90 1.77595e-05
19 *1364:A3 *1364:A2 0.00197264
20 *1364:A3 *1364:B1 0.00162752
21 *199:12 *1400:B 0.000712246
22 *199:12 *204:24 1.79536e-05
23 *199:12 *205:50 0.000295483
24 *199:12 *207:26 8.36482e-05
25 *199:12 *225:39 0.000656001
26 *199:27 *210:91 8.49205e-05
27 *199:27 *218:90 8.34281e-06
28 *199:56 *210:60 0.00035606
29 *199:56 *211:27 1.12578e-05
30 *199:56 *218:72 0.000598447
31 *199:56 *226:33 0.000744764
32 *199:62 *1361:B1 0.00036741
33 *199:62 *210:33 6.41962e-05
34 *199:62 *210:60 1.05984e-05
35 *199:62 *218:30 0.000230024
36 *199:107 *1364:A2 4.41909e-05
37 *199:107 *1435:A 0.000125372
38 *199:107 *204:24 0.000108674
39 *199:107 *218:90 0.000263595
40 *199:107 *225:39 0.000107444
41 *199:107 *226:33 0.000375343
42 *1332:B *199:56 8.9257e-05
43 *1333:B1 *199:56 0.00038394
44 *1335:A *199:56 0.000330186
45 *1335:A *199:62 0.000131836
46 *1358:C *199:27 0
47 *1358:C *199:42 0
48 *1362:C *199:62 0.00088279
49 *1381:B *199:62 0.000317706
50 *1407:A *1342:D 0.000500993
51 *1424:A *199:27 2.68526e-05
52 *1424:A *199:42 0.000111485
53 *1424:A *199:107 0.000411679
54 *1427:B *199:107 8.73389e-06
55 *1435:B *199:107 5.49536e-05
56 *1450:A *1342:D 2.61765e-05
57 *1495:RESET_B *199:12 7.19906e-05
58 *1498:CLK *199:107 2.67275e-05
59 *1503:CLK *199:107 8.52883e-05
60 *1509:D *1342:D 0.000110198
61 *1522:CLK *199:56 4.77757e-05
62 *1530:A *199:56 0.000271981
63 *39:22 *199:56 0.000303305
64 *70:34 *199:56 0.00044584
65 *84:14 *1364:A3 0.000177547
66 *95:12 *1342:D 0
67 *103:71 *199:56 0.000115148
68 *107:38 *1364:A3 2.01504e-05
69 *107:38 *199:107 4.77757e-05
70 *133:10 *1364:A3 0.000174867
71 *153:12 *199:56 5.63924e-05
72 *170:14 *199:56 0.000446025
73 *170:26 *199:56 0.00161454
74 *175:14 *1342:D 0.000870216
75 *175:14 *1355:A 0.000181006
76 *180:125 *199:12 7.61888e-06
77 *183:81 *199:56 0.000116158
78 *183:83 *199:56 0.000656032
79 *186:8 *1357:B 0.000161467
80 *186:89 *1357:B 0.000112963
81 *186:89 *199:12 0.000121643
82 *186:89 *199:27 1.07563e-05
83 *186:91 *199:27 4.37057e-05
84 *187:22 *199:56 0.000242586
85 *187:34 *199:56 0.000340787
86 *194:20 *199:62 9.57777e-05
87 *198:16 *199:27 0
*RES
1 *1495:Q *199:12 18.26 
2 *199:12 *1357:B 4.12 
3 *199:12 *199:27 6.94 
4 *199:27 *1360:C 2.41 
5 *199:27 *199:42 5.89 
6 *199:42 *199:56 49.9 
7 *199:56 *199:62 26.96 
8 *199:62 *1342:D 23.175 
9 *199:62 *1355:A 5.745 
10 *199:56 *1361:A2 1.6 
11 *199:42 *199:107 23.785 
12 *199:107 *1356:B 1.6 
13 *199:107 *1364:A3 27.275 
*END

*D_NET *200 0.029395
*CONN
*I *1392:A1 I *D sky130_fd_sc_hd__a21oi_1
*I *1393:B I *D sky130_fd_sc_hd__and3_2
*I *1388:A I *D sky130_fd_sc_hd__or2_1
*I *1389:A I *D sky130_fd_sc_hd__nand2_1
*I *1409:B I *D sky130_fd_sc_hd__and4_1
*I *1346:B I *D sky130_fd_sc_hd__or4_1
*I *1505:Q O *D sky130_fd_sc_hd__dfrtp_4
*CAP
1 *1392:A1 0
2 *1393:B 0.000789388
3 *1388:A 0
4 *1389:A 0.000213138
5 *1409:B 0.000166056
6 *1346:B 0
7 *1505:Q 0.00294368
8 *200:97 0.0010531
9 *200:65 0.000398827
10 *200:63 0.000999761
11 *200:50 0.00256214
12 *200:30 0.00478941
13 *1389:A *220:12 0
14 *1409:B *1445:A 0.000156622
15 *200:30 *1347:A_N 0.000192682
16 *200:30 *1347:B 0.000110482
17 *200:30 *1392:B1 8.35106e-05
18 *200:30 *209:39 1.91769e-05
19 *200:30 *209:72 1.02564e-05
20 *200:50 *1392:B1 1.70272e-05
21 *200:63 *1346:C 0.000271119
22 *200:63 *1392:B1 1.62626e-05
23 *200:63 *1445:A 8.11582e-05
24 *200:63 *1449:A2 0.000156127
25 *200:65 *1445:A 2.97339e-05
26 *200:97 *220:12 4.92193e-05
27 *1331:B *200:30 7.56834e-05
28 *1337:B *200:50 6.90254e-05
29 *1346:D *200:63 0.000424791
30 *1349:A3 *200:50 0.00142956
31 *1351:A2 *200:50 8.54923e-05
32 *1362:A *1389:A 0
33 *1362:B *200:63 0.000275572
34 *1377:A *200:30 0.000452191
35 *1377:B *200:30 0.000524831
36 *1377:C *200:30 5.73568e-06
37 *1378:A *200:30 0.000450032
38 *1380:A1 *200:30 2.7741e-06
39 *1382:B *200:50 0.000130892
40 *1387:A *1393:B 0.00105478
41 *1387:A *200:97 0.000357137
42 *1389:B *1389:A 0
43 *1389:B *1409:B 7.87077e-05
44 *1389:B *200:97 0
45 *1393:C *1393:B 0.000151412
46 *1401:B *200:50 0.000716016
47 *1401:C *200:50 0.000270653
48 *1411:A1 *200:30 0.000477223
49 *1449:C1 *200:63 0.000142149
50 *1475:A *200:50 3.83194e-05
51 *1499:RESET_B *1409:B 1.77199e-05
52 *1499:RESET_B *200:63 0.00112525
53 *1499:RESET_B *200:65 8.49205e-05
54 *1513:RESET_B *200:30 0.000133453
55 *32:16 *1393:B 0.000228237
56 *47:47 *1393:B 0.000123194
57 *52:32 *200:63 0.00069661
58 *76:32 *200:30 0.000771007
59 *100:14 *200:50 0.000889543
60 *129:24 *1393:B 8.48192e-05
61 *129:24 *200:97 4.43871e-06
62 *129:30 *200:97 0
63 *133:8 *200:30 6.88183e-05
64 *133:10 *200:30 0
65 *134:73 *1393:B 0.000200832
66 *139:26 *200:50 0.000432313
67 *143:18 *1389:A 8.41384e-05
68 *146:26 *1393:B 0.000233824
69 *165:26 *200:30 0.000944205
70 *178:18 *1409:B 0.00014262
71 *183:18 *1393:B 6.14605e-05
72 *196:22 *1393:B 0.000745762
*RES
1 *1505:Q *200:30 47.3309 
2 *200:30 *200:50 43.565 
3 *200:50 *1346:B 1.6 
4 *200:50 *200:63 22.575 
5 *200:63 *200:65 0.795 
6 *200:65 *1409:B 10.115 
7 *200:65 *1389:A 8.795 
8 *200:63 *200:97 7.715 
9 *200:97 *1388:A 3.6 
10 *200:97 *1393:B 23.01 
11 *200:30 *1392:A1 1.6 
*END

*D_NET *201 0.0223605
*CONN
*I *1393:A I *D sky130_fd_sc_hd__and3_2
*I *1392:B1 I *D sky130_fd_sc_hd__a21oi_1
*I *1346:A I *D sky130_fd_sc_hd__or4_1
*I *1409:A I *D sky130_fd_sc_hd__and4_1
*I *1506:Q O *D sky130_fd_sc_hd__dfrtp_2
*CAP
1 *1393:A 3.42817e-05
2 *1392:B1 0.000953567
3 *1346:A 0
4 *1409:A 4.93393e-05
5 *1506:Q 0.00064776
6 *201:45 0.0029324
7 *201:16 0.00253708
8 *201:14 0.00119096
9 *1392:B1 *1382:A 0.000384445
10 *1392:B1 *1431:A 0.000496892
11 *1392:B1 *224:65 4.04857e-05
12 *1409:A *1342:B 4.66108e-05
13 *201:14 *1381:A 0.000185836
14 *201:45 *1342:B 1.91597e-05
15 *201:45 *1449:A1 0
16 *1337:B *1392:B1 0.000344941
17 *1349:A3 *1392:B1 1.42598e-05
18 *1358:C *201:14 0.000139614
19 *1366:A *201:14 1.04292e-05
20 *1370:B *1392:B1 2.42473e-05
21 *1374:B *1392:B1 0
22 *1382:B *1392:B1 4.66108e-05
23 *1392:A2 *1392:B1 4.66108e-05
24 *1393:C *1393:A 3.99407e-05
25 *1407:A *1409:A 7.47215e-05
26 *1407:A *201:16 0.000109016
27 *1475:A *1392:B1 0.000184249
28 *1494:A *1392:B1 0.000375508
29 *1499:D *201:16 0.000137075
30 *1509:D *201:14 0.000140029
31 *1509:D *201:16 0.000142653
32 *1519:D *1409:A 5.16418e-05
33 *36:12 *201:45 0.00149745
34 *45:24 *201:14 0.001001
35 *45:24 *201:16 0.00117146
36 *51:8 *1392:B1 0
37 *52:32 *1392:B1 0.00247657
38 *61:24 *201:45 0.000111308
39 *68:18 *201:45 4.99619e-05
40 *100:14 *1392:B1 0.000698938
41 *109:30 *201:14 9.05592e-05
42 *128:22 *201:45 0.000710421
43 *129:10 *1392:B1 1.71013e-05
44 *133:8 *1392:B1 4.6368e-06
45 *134:14 *201:14 0.000806259
46 *134:73 *1393:A 2.89963e-05
47 *178:18 *1409:A 1.1561e-05
48 *178:18 *201:14 0.00090463
49 *178:18 *201:16 0.00111791
50 *180:31 *1392:B1 0.000144558
51 *183:20 *201:16 0
52 *200:30 *1392:B1 8.35106e-05
53 *200:50 *1392:B1 1.70272e-05
54 *200:63 *1392:B1 1.62626e-05
*RES
1 *1506:Q *201:14 25.38 
2 *201:14 *201:16 18.21 
3 *201:16 *1409:A 4.92 
4 *201:16 *201:45 34.965 
5 *201:45 *1346:A 1.6 
6 *201:45 *1392:B1 38.585 
7 *201:14 *1393:A 4.41 
*END

*D_NET *202 0.0225352
*CONN
*I *1399:A1 I *D sky130_fd_sc_hd__a21o_1
*I *1395:A I *D sky130_fd_sc_hd__or2_1
*I *1400:A I *D sky130_fd_sc_hd__nand3_2
*I *1396:A I *D sky130_fd_sc_hd__nand2_1
*I *1345:C I *D sky130_fd_sc_hd__and4_1
*I *1507:Q O *D sky130_fd_sc_hd__dfrtp_4
*CAP
1 *1399:A1 0.000167302
2 *1395:A 0.000428314
3 *1400:A 0.00158093
4 *1396:A 8.38249e-05
5 *1345:C 3.61109e-05
6 *1507:Q 1.37047e-05
7 *202:57 0.00141347
8 *202:16 0.000685873
9 *202:10 0.00252923
10 *202:6 0.00121392
11 *1345:C *1341:B1 0.000164778
12 *1395:A *214:38 3.67779e-05
13 *1396:A *1341:B1 0.000302283
14 *1399:A1 *209:39 0.000554624
15 *1399:A1 *222:18 1.91597e-05
16 *202:10 *1442:A 0.000492947
17 *202:10 *210:60 0.000344023
18 *202:16 *1345:A 0.0025551
19 *202:16 *1345:B 0.00259083
20 *202:57 *208:41 0.000647851
21 *1330:A *1400:A 5.90496e-05
22 *1330:A *202:57 6.43653e-05
23 *1365:C *1400:A 0.000119278
24 *1395:B *1395:A 0.000266342
25 *1399:A2 *1395:A 0.00034915
26 *1399:A2 *1399:A1 0.000483154
27 *1399:A2 *202:57 3.09233e-05
28 *1429:B *1395:A 8.83862e-05
29 *1441:A1 *202:6 4.66108e-05
30 *1441:A1 *202:57 0.000158072
31 *1506:D *202:57 7.79812e-05
32 *1507:RESET_B *202:57 1.759e-05
33 *1514:D *1395:A 4.43871e-06
34 *1514:D *202:57 0.00106085
35 *1514:RESET_B *1399:A1 1.91597e-05
36 *1516:D *1400:A 3.87557e-05
37 *1516:D *202:10 0.000211112
38 *1521:D *1395:A 0.000342173
39 *1521:D *202:57 5.92269e-05
40 *47:28 *1395:A 9.73788e-05
41 *57:16 *1395:A 4.77807e-05
42 *68:18 *202:57 0
43 *134:37 *1400:A 3.09233e-05
44 *134:47 *1400:A 0.001899
45 *136:8 *1345:C 0.000163351
46 *136:8 *1396:A 0.000263736
47 *153:12 *1400:A 0.000175567
48 *153:12 *202:10 0.000197797
49 *180:70 *202:6 2.75229e-05
50 *180:70 *202:57 0.000223736
51 *190:58 *202:57 5.07362e-05
*RES
1 *1507:Q *202:6 2.05 
2 *202:6 *202:10 12.815 
3 *202:10 *202:16 28.945 
4 *202:16 *1345:C 5.49 
5 *202:16 *1396:A 7.275 
6 *202:10 *1400:A 28.05 
7 *202:6 *202:57 22.88 
8 *202:57 *1395:A 15.39 
9 *202:57 *1399:A1 9.24 
*END

*D_NET *203 0.0270213
*CONN
*I *1347:B I *D sky130_fd_sc_hd__and4b_1
*I *1400:B I *D sky130_fd_sc_hd__nand3_2
*I *1345:D I *D sky130_fd_sc_hd__and4_1
*I *1399:B1 I *D sky130_fd_sc_hd__a21o_1
*I *1508:Q O *D sky130_fd_sc_hd__dfrtp_2
*CAP
1 *1347:B 0.000835051
2 *1400:B 0.00117047
3 *1345:D 0.00247662
4 *1399:B1 3.22412e-05
5 *1508:Q 0
6 *203:33 0.00464166
7 *203:12 0.00153404
8 *203:4 0.00134228
9 *1345:D *1333:A1_N 0.00102619
10 *1345:D *1345:A 9.21064e-05
11 *1345:D *1345:B 0.000192063
12 *1347:B *1347:A_N 0.000468931
13 *1347:B *204:53 0
14 *1399:B1 *209:39 4.0843e-05
15 *1399:B1 *222:18 0.000119756
16 *1400:B *1333:A1_N 7.36599e-05
17 *203:12 *205:10 0.000244438
18 *203:12 *222:18 0.00180027
19 *203:33 *1427:A 0.000155642
20 *203:33 *206:24 8.40213e-05
21 *203:33 *211:10 0.000430547
22 *203:33 *217:10 0.000196254
23 *1333:B1 *1400:B 6.07575e-06
24 *1334:A *203:33 0.000281664
25 *1359:A *203:33 0.000142327
26 *1411:A1 *1347:B 0.00019222
27 *1427:B *203:33 0.000135201
28 *1440:A2 *1347:B 0
29 *1446:B *203:33 0.000276897
30 *1452:D1 *203:12 0.000246105
31 *1455:B *1400:B 5.88334e-05
32 *1459:A1 *1400:B 0.00015639
33 *1495:RESET_B *1400:B 0.000534369
34 *1495:RESET_B *203:33 0.000106876
35 *1507:D *203:33 0.000680042
36 *1509:RESET_B *1345:D 3.86529e-05
37 *1512:D *1345:D 0.00101193
38 *1513:RESET_B *203:33 0.000262064
39 *23:16 *203:33 1.08723e-05
40 *43:14 *1347:B 0.000596695
41 *57:16 *1347:B 4.45799e-05
42 *68:18 *203:33 0.000358109
43 *70:34 *203:33 0.000390753
44 *85:10 *203:33 0.000150343
45 *87:24 *203:33 0.000112979
46 *88:66 *203:33 0.000155304
47 *98:12 *1345:D 5.62329e-05
48 *109:30 *203:33 0.000204221
49 *138:12 *1399:B1 4.82919e-05
50 *138:12 *203:12 0.00146353
51 *155:18 *203:12 0.000176315
52 *164:12 *1345:D 2.99731e-05
53 *165:26 *1347:B 0.000133085
54 *180:125 *1400:B 4.68656e-05
55 *181:151 *1347:B 0.0002113
56 *184:38 *1345:D 3.67779e-05
57 *186:8 *1400:B 0.000493202
58 *186:89 *1400:B 0.00023692
59 *188:65 *203:33 0.000155491
60 *199:12 *1400:B 0.000712246
61 *200:30 *1347:B 0.000110482
*RES
1 *1508:Q *203:4 1.6 
2 *203:4 *203:12 23.92 
3 *203:12 *1399:B1 2.74 
4 *203:12 *203:33 38.48 
5 *203:33 *1345:D 42.96 
6 *203:33 *1400:B 25.535 
7 *203:4 *1347:B 20.63 
*END

*D_NET *204 0.023268
*CONN
*I *1345:B I *D sky130_fd_sc_hd__and4_1
*I *1347:C I *D sky130_fd_sc_hd__and4b_1
*I *1403:A I *D sky130_fd_sc_hd__inv_2
*I *1509:Q O *D sky130_fd_sc_hd__dfrtp_2
*CAP
1 *1345:B 0.000878781
2 *1347:C 0
3 *1403:A 0
4 *1509:Q 0.000426551
5 *204:53 0.00177883
6 *204:24 0.00285338
7 *204:10 0.00237988
8 *1345:B *1345:A 0.000638911
9 *204:10 *206:14 0.000144789
10 *204:10 *206:16 0.000808288
11 *204:10 *207:36 0
12 *204:24 *1432:A 0.000122331
13 *204:24 *1432:B 4.51031e-05
14 *204:24 *206:16 0.000161266
15 *204:24 *210:91 9.67062e-05
16 *204:24 *225:39 0.000416628
17 *204:53 *1432:A 4.99619e-05
18 *204:53 *1432:B 9.8681e-05
19 *204:53 *208:61 0.00051799
20 *204:53 *216:20 3.83194e-05
21 *1344:B *204:53 0.000967508
22 *1345:D *1345:B 0.000192063
23 *1347:B *204:53 0
24 *1375:B *204:53 0.000565798
25 *1386:D *204:53 0.000800207
26 *1404:A *204:53 0.000335065
27 *1415:A *204:24 0.00106303
28 *1440:A2 *204:53 4.18005e-05
29 *1463:A *204:53 2.49909e-05
30 *1495:RESET_B *204:24 0.000336323
31 *1509:CLK *204:10 1.56428e-05
32 *1510:RESET_B *204:53 0.00018038
33 *1512:D *1345:B 0.00084886
34 *37:24 *204:53 0.000796466
35 *76:32 *204:53 0
36 *136:8 *1345:B 0.00013642
37 *142:28 *204:53 0.00013521
38 *147:84 *204:10 0.000438364
39 *147:84 *204:24 8.32485e-05
40 *165:26 *204:53 0
41 *179:110 *204:53 4.5783e-05
42 *179:131 *204:53 5.23362e-05
43 *180:125 *204:24 0.00046735
44 *187:22 *1345:B 0.00156733
45 *199:12 *204:24 1.79536e-05
46 *199:107 *204:24 0.000108674
47 *202:16 *1345:B 0.00259083
*RES
1 *1509:Q *204:10 15.63 
2 *204:10 *204:24 16.2195 
3 *204:24 *1403:A 1.6 
4 *204:24 *204:53 48.725 
5 *204:53 *1347:C 1.6 
6 *204:10 *1345:B 42.22 
*END

*D_NET *205 0.0229338
*CONN
*I *1345:A I *D sky130_fd_sc_hd__and4_1
*I *1408:A I *D sky130_fd_sc_hd__inv_2
*I *1347:D I *D sky130_fd_sc_hd__and4b_1
*I *1510:Q O *D sky130_fd_sc_hd__dfrtp_2
*CAP
1 *1345:A 0.00283565
2 *1408:A 0.000234611
3 *1347:D 0.000324105
4 *1510:Q 3.38751e-05
5 *205:50 0.00412119
6 *205:10 0.00164679
7 *205:8 0.00240749
8 *205:10 *1435:A 5.98203e-05
9 *205:10 *223:29 0.00015527
10 *205:50 *1357:A 4.82919e-05
11 *205:50 *207:81 0.00026617
12 *1345:B *1345:A 0.000638911
13 *1345:D *1345:A 9.21064e-05
14 *1357:B *205:50 0.000274431
15 *1358:C *205:50 1.91597e-05
16 *1391:A *1347:D 0.000191335
17 *1404:A *205:10 0.000514641
18 *1404:A *205:50 7.00223e-05
19 *1411:A1 *1408:A 0.000428892
20 *1414:B *205:10 9.5799e-06
21 *1452:D1 *1347:D 0.000114345
22 *1452:D1 *205:10 0.000410931
23 *1455:B *1345:A 6.62684e-05
24 *1510:D *205:8 4.82863e-05
25 *1510:D *205:50 0.000173388
26 *1510:RESET_B *205:50 0.000156091
27 *1511:RESET_B *205:50 8.33066e-06
28 *1512:CLK *1345:A 8.83862e-05
29 *1512:D *1345:A 6.07575e-06
30 *1512:RESET_B *205:50 0
31 *1527:A *205:10 0.000407612
32 *22:20 *205:50 0.000235338
33 *50:30 *205:10 0.000134509
34 *51:8 *205:10 0.000226445
35 *57:16 *1347:D 0.000163466
36 *95:98 *1347:D 0.000101631
37 *95:109 *1347:D 1.10951e-05
38 *95:109 *205:10 0.00107762
39 *95:109 *205:50 1.95781e-05
40 *97:10 *1408:A 0.000809593
41 *136:8 *1345:A 4.45754e-05
42 *147:76 *205:50 0
43 *164:12 *1345:A 0
44 *168:30 *1408:A 1.19928e-05
45 *177:18 *1345:A 1.0418e-05
46 *180:44 *205:10 0.000707403
47 *186:8 *205:50 3.76642e-05
48 *186:117 *205:50 0.000347109
49 *198:16 *205:50 4.82863e-05
50 *199:12 *205:50 0.000295483
51 *202:16 *1345:A 0.0025551
52 *203:12 *205:10 0.000244438
*RES
1 *1510:Q *205:8 4.05 
2 *205:8 *205:10 31.98 
3 *205:10 *1347:D 10.1812 
4 *205:10 *1408:A 11.295 
5 *205:8 *205:50 27.585 
6 *205:50 *1345:A 44.24 
*END

*D_NET *206 0.0285077
*CONN
*I *1419:A2 I *D sky130_fd_sc_hd__a31o_1
*I *1421:A3 I *D sky130_fd_sc_hd__a41o_1
*I *1422:D I *D sky130_fd_sc_hd__and4_2
*I *1412:A I *D sky130_fd_sc_hd__or2_1
*I *1413:A I *D sky130_fd_sc_hd__nand2_2
*I *1348:B I *D sky130_fd_sc_hd__and4b_1
*I *1511:Q O *D sky130_fd_sc_hd__dfrtp_4
*CAP
1 *1419:A2 6.904e-05
2 *1421:A3 0.000315896
3 *1422:D 6.54628e-05
4 *1412:A 0
5 *1413:A 0
6 *1348:B 0.00014372
7 *1511:Q 0.00019705
8 *206:69 0.000630159
9 *206:58 0.00032026
10 *206:49 0.000971467
11 *206:32 0.00162795
12 *206:24 0.00194201
13 *206:16 0.00189033
14 *206:14 0.000798644
15 *1348:B *1348:D 0.000116161
16 *1348:B *207:126 0.000969261
17 *1419:A2 *207:26 2.16833e-05
18 *1421:A3 *1421:A2 3.83194e-05
19 *1421:A3 *1421:B1 0.000981119
20 *1421:A3 *207:100 3.83194e-05
21 *1422:D *1422:C 3.67779e-05
22 *1422:D *207:81 1.07797e-05
23 *206:16 *1333:A1_N 0.000157489
24 *206:16 *226:27 1.61696e-05
25 *206:24 *226:16 0.000695047
26 *206:24 *226:27 0.00011296
27 *206:32 *1336:A1 0.00155699
28 *206:49 *210:91 0.00052877
29 *206:49 *219:14 0.000301378
30 *206:58 *218:90 0.000230429
31 *206:69 *218:90 0.000928786
32 *1348:C *1348:B 0.000487348
33 *1349:B1 *206:32 8.82975e-05
34 *1414:B *206:49 0.00192046
35 *1421:A4 *1421:A3 0.0009828
36 *1426:A *206:24 0.000478116
37 *1426:A *206:32 0.00190553
38 *1455:B *206:16 6.14912e-05
39 *1468:A *206:14 0.00012657
40 *1475:A *206:32 0.000308221
41 *1509:CLK *206:14 6.71882e-05
42 *1511:CLK *206:14 1.46828e-05
43 *1513:RESET_B *206:24 8.23457e-05
44 *1516:RESET_B *206:14 4.43871e-06
45 *1516:RESET_B *206:16 0.000480249
46 *1516:RESET_B *206:24 0.000175752
47 *47:26 *206:16 6.10279e-05
48 *47:95 *1422:D 0.000136877
49 *47:95 *206:69 0.000206817
50 *54:16 *206:14 0.000268165
51 *61:24 *206:32 0.000442801
52 *84:14 *1422:D 5.4003e-05
53 *84:14 *206:69 0.000198974
54 *87:24 *206:32 2.42211e-05
55 *93:14 *206:49 1.88602e-05
56 *97:67 *206:32 0.000108838
57 *107:38 *206:58 4.21973e-05
58 *147:66 *206:69 0.000857316
59 *147:68 *206:58 0.00015896
60 *147:68 *206:69 7.14699e-05
61 *147:76 *1419:A2 0.000120655
62 *147:84 *206:16 6.36438e-07
63 *149:14 *206:58 1.10085e-05
64 *153:8 *1419:A2 0.000122331
65 *181:58 *206:32 0.00103193
66 *186:47 *206:14 4.48373e-06
67 *188:21 *206:49 1.88602e-05
68 *189:95 *206:16 0.000271979
69 *189:95 *206:24 0.000180999
70 *203:33 *206:24 8.40213e-05
71 *204:10 *206:14 0.000144789
72 *204:10 *206:16 0.000808288
73 *204:24 *206:16 0.000161266
*RES
1 *1511:Q *206:14 8.82 
2 *206:14 *206:16 15.7875 
3 *206:16 *206:24 17.2675 
4 *206:24 *206:32 42.365 
5 *206:32 *1348:B 10.33 
6 *206:16 *206:49 6.2421 
7 *206:49 *1413:A 1.6 
8 *206:49 *206:58 2.535 
9 *206:58 *1412:A 1.6 
10 *206:58 *206:69 13.13 
11 *206:69 *1422:D 5.235 
12 *206:69 *1421:A3 14.745 
13 *206:14 *1419:A2 5.445 
*END

*D_NET *207 0.0384375
*CONN
*I *1421:A2 I *D sky130_fd_sc_hd__a41o_1
*I *1418:B I *D sky130_fd_sc_hd__nand2_1
*I *1348:A_N I *D sky130_fd_sc_hd__and4b_1
*I *235:DIODE I *D sky130_fd_sc_hd__diode_2
*I *1422:C I *D sky130_fd_sc_hd__and4_2
*I *1419:A1 I *D sky130_fd_sc_hd__a31o_1
*I *1416:A I *D sky130_fd_sc_hd__xor2_1
*I *1341:A2 I *D sky130_fd_sc_hd__a21o_1
*I *1512:Q O *D sky130_fd_sc_hd__dfrtp_4
*CAP
1 *1421:A2 0.000397936
2 *1418:B 0.000586903
3 *1348:A_N 0
4 *235:DIODE 8.02842e-05
5 *1422:C 7.36934e-05
6 *1419:A1 0
7 *1416:A 0
8 *1341:A2 0.000746929
9 *1512:Q 0.000236181
10 *207:126 0.0011171
11 *207:122 0.00278321
12 *207:110 0.00345014
13 *207:100 0.00167439
14 *207:81 0.00194256
15 *207:36 0.00141919
16 *207:26 0.0017498
17 *207:16 0.00302297
18 *1341:A2 *1341:A1 0.00141622
19 *1418:B *1418:A 5.59592e-05
20 *1421:A2 *1421:B1 0.000942809
21 *1422:C *1421:B1 2.65814e-06
22 *1422:C *1422:A 8.73389e-06
23 *1422:C *208:61 5.83121e-06
24 *207:16 *1432:A 8.33066e-06
25 *207:16 *213:33 5.6458e-05
26 *207:16 *225:39 6.07139e-05
27 *207:26 *225:39 0.000297023
28 *207:36 *1341:A1 0
29 *207:81 *1327:A 9.30787e-05
30 *207:81 *1432:A 7.61069e-05
31 *207:81 *1435:A 2.81489e-05
32 *207:100 *1421:B1 4.66108e-05
33 *207:110 *1421:B1 0.000183738
34 *207:110 *221:52 0.00102144
35 *207:122 *220:66 0.000536078
36 *207:122 *224:65 9.40318e-05
37 *1348:B *207:126 0.000969261
38 *1348:C *207:126 0.000405082
39 *1374:B *207:122 0.000106348
40 *1377:C *207:110 5.79169e-06
41 *1406:C *207:122 0.000136301
42 *1411:C1 *207:110 0.000377314
43 *1419:A2 *207:26 2.16833e-05
44 *1420:A1 *1418:B 0.000185123
45 *1421:A3 *1421:A2 3.83194e-05
46 *1421:A3 *207:100 3.83194e-05
47 *1422:D *1422:C 3.67779e-05
48 *1422:D *207:81 1.07797e-05
49 *1423:B *207:122 0.000312807
50 *1423:B *207:126 4.77719e-05
51 *1455:A *207:81 0.00011577
52 *1467:A *207:26 0.000210016
53 *1469:A *207:26 0.00016031
54 *1479:A *207:16 1.27987e-05
55 *1495:RESET_B *207:16 0
56 *1503:RESET_B *207:26 0
57 *1509:CLK *207:36 9.68287e-05
58 *1509:D *1341:A2 0
59 *1509:RESET_B *1341:A2 8.9706e-05
60 *1509:RESET_B *207:36 0.000618077
61 *1510:CLK *207:81 2.76356e-05
62 *1510:D *207:81 5.83121e-06
63 *1518:D *207:110 0.000302188
64 *1524:RESET_B *207:81 0.000420674
65 *1527:A *1341:A2 8.24368e-05
66 *47:95 *207:110 0.000638784
67 *47:108 *207:110 0.000813452
68 *47:110 *207:110 0.000218904
69 *76:50 *207:26 0
70 *76:50 *207:81 0.00014164
71 *77:12 *207:16 0.000167645
72 *84:14 *207:81 0.000163012
73 *84:14 *207:100 4.82919e-05
74 *94:8 *1341:A2 0.00052681
75 *95:83 *207:122 0.000195586
76 *97:18 *207:122 0
77 *107:38 *207:81 0.000671944
78 *115:101 *1418:B 0.000209054
79 *115:101 *207:122 0.000769312
80 *118:20 *1341:A2 0.000691458
81 *122:10 *207:110 0.000130775
82 *133:10 *1422:C 7.14241e-05
83 *133:10 *207:81 0.000169465
84 *139:14 *207:26 0
85 *139:14 *207:81 5.69945e-05
86 *143:24 *207:122 0.000134883
87 *147:16 *207:110 0.000720974
88 *147:18 *207:110 0.00021798
89 *147:66 *207:81 0.000169103
90 *147:76 *207:26 0.000867698
91 *149:14 *207:81 7.00223e-05
92 *151:12 *1341:A2 4.77757e-05
93 *153:8 *207:26 1.61831e-05
94 *154:12 *1421:A2 0.000464505
95 *163:12 *207:16 0.000303266
96 *179:131 *207:26 0
97 *180:125 *207:16 8.68767e-06
98 *186:117 *207:81 3.03684e-05
99 *187:145 *207:81 0.000139238
100 *191:66 *207:122 0.000163255
101 *199:12 *207:26 8.36482e-05
102 *204:10 *207:36 0
103 *205:50 *207:81 0.00026617
*RES
1 *1512:Q *207:16 13.3525 
2 *207:16 *207:26 23.0375 
3 *207:26 *207:36 13.69 
4 *207:36 *1341:A2 31.325 
5 *207:36 *1416:A 1.6 
6 *207:26 *1419:A1 1.6 
7 *207:16 *207:81 36.9725 
8 *207:81 *1422:C 4.92 
9 *207:81 *207:100 4.295 
10 *207:100 *207:110 41.38 
11 *207:110 *207:122 37.36 
12 *207:122 *207:126 19.44 
13 *207:126 *235:DIODE 2.74 
14 *207:126 *1348:A_N 1.6 
15 *207:110 *1418:B 11.38 
16 *207:100 *1421:A2 11.38 
*END

*D_NET *208 0.0412356
*CONN
*I *1341:A1 I *D sky130_fd_sc_hd__a21o_1
*I *1419:B1 I *D sky130_fd_sc_hd__a31o_1
*I *1422:B I *D sky130_fd_sc_hd__and4_2
*I *1418:A I *D sky130_fd_sc_hd__nand2_1
*I *1421:A1 I *D sky130_fd_sc_hd__a41o_1
*I *1348:D I *D sky130_fd_sc_hd__and4b_1
*I *1513:Q O *D sky130_fd_sc_hd__dfrtp_4
*CAP
1 *1341:A1 0.00240515
2 *1419:B1 0.000104212
3 *1422:B 0
4 *1418:A 0.00091397
5 *1421:A1 7.46272e-05
6 *1348:D 0.00156058
7 *1513:Q 0.000780975
8 *208:108 0.00350286
9 *208:69 0.00192597
10 *208:61 0.00296673
11 *208:41 0.0034621
12 *208:16 0.0027808
13 *1348:D *1369:A 0.00028463
14 *1348:D *1449:A1 6.85607e-05
15 *1348:D *210:60 0.000903986
16 *208:41 *210:60 3.31051e-05
17 *208:61 *1339:A1 0.000127635
18 *208:61 *1422:A 4.60061e-05
19 *208:61 *1432:B 0.000264411
20 *208:69 *209:72 9.14049e-05
21 *208:69 *216:20 0.000249905
22 *1330:A *208:41 0.000273983
23 *1341:A2 *1341:A1 0.00141622
24 *1348:B *1348:D 0.000116161
25 *1348:C *1348:D 0.000114486
26 *1414:B *208:16 9.26907e-06
27 *1414:B *208:61 9.0671e-05
28 *1416:B *1341:A1 0.000370437
29 *1418:B *1418:A 5.59592e-05
30 *1420:A1 *1418:A 3.00381e-05
31 *1422:C *208:61 5.83121e-06
32 *1426:A *208:61 0.000124591
33 *1430:A *1348:D 0.000202746
34 *1449:B1 *1348:D 0
35 *1454:A1 *208:16 0
36 *1457:B *208:16 8.6076e-05
37 *1457:B *208:41 0.000123642
38 *1463:A *208:61 0.000124724
39 *1466:A *1418:A 0.00165967
40 *1496:RESET_B *1348:D 0.00196874
41 *1498:D *208:61 0.000822786
42 *1503:D *208:61 0.000467433
43 *1507:RESET_B *208:16 0.000308812
44 *1509:CLK *1341:A1 5.05716e-06
45 *1513:RESET_B *208:41 0.000372585
46 *1514:D *208:41 5.98045e-05
47 *1514:D *208:108 6.22863e-05
48 *1515:RESET_B *208:108 0.000701702
49 *1526:RESET_B *208:16 0
50 *1529:A *1348:D 6.16226e-06
51 *47:26 *208:108 4.74658e-05
52 *47:28 *208:108 0.000273674
53 *47:95 *208:69 1.73877e-05
54 *50:30 *208:61 0.00075175
55 *53:10 *1421:A1 0.000296088
56 *53:18 *1418:A 1.03323e-05
57 *53:18 *208:69 0.000225734
58 *68:18 *208:108 0.000130981
59 *88:66 *208:16 4.97261e-05
60 *94:8 *1341:A1 3.90873e-06
61 *117:24 *208:41 0.000101177
62 *118:20 *1341:A1 5.08284e-05
63 *120:18 *208:61 8.40213e-05
64 *133:10 *208:69 0.000132456
65 *147:84 *208:108 0
66 *153:8 *1419:B1 9.93004e-05
67 *153:12 *1348:D 0.000959155
68 *153:12 *208:41 3.97211e-05
69 *153:12 *208:108 0
70 *159:26 *208:41 0.000201801
71 *159:26 *208:108 9.58678e-06
72 *179:54 *1418:A 0.000706637
73 *179:78 *1418:A 0.000170746
74 *183:83 *1348:D 1.54187e-05
75 *187:44 *208:16 0.000258077
76 *188:59 *208:108 0
77 *188:65 *208:41 8.5002e-05
78 *192:16 *1421:A1 0.000292059
79 *193:20 *208:16 1.79483e-05
80 *194:20 *1348:D 6.90254e-05
81 *198:18 *1418:A 0.00284226
82 *202:57 *208:41 0.000647851
83 *204:53 *208:61 0.00051799
84 *207:36 *1341:A1 0
*RES
1 *1513:Q *208:16 6.94737 
2 *208:16 *1348:D 44.0288 
3 *208:16 *208:41 17.455 
4 *208:41 *208:61 23.8862 
5 *208:61 *208:69 16.435 
6 *208:69 *1421:A1 9.02 
7 *208:69 *1418:A 41.495 
8 *208:61 *1422:B 1.6 
9 *208:41 *208:108 19.9125 
10 *208:108 *1419:B1 5.775 
11 *208:108 *1341:A1 37.035 
*END

*D_NET *209 0.0288149
*CONN
*I *1421:B1 I *D sky130_fd_sc_hd__a41o_1
*I *1422:A I *D sky130_fd_sc_hd__and4_2
*I *1347:A_N I *D sky130_fd_sc_hd__and4b_1
*I *1341:B1 I *D sky130_fd_sc_hd__a21o_1
*I *1514:Q O *D sky130_fd_sc_hd__dfrtp_4
*CAP
1 *1421:B1 0.000287201
2 *1422:A 4.00006e-05
3 *1347:A_N 0.000461558
4 *1341:B1 0.00166426
5 *1514:Q 0
6 *209:72 0.00130201
7 *209:39 0.00458019
8 *209:12 0.00303804
9 *209:4 0.0045176
10 *1341:B1 *219:20 0.00190604
11 *1421:B1 *1432:B 0.000111461
12 *1421:B1 *221:52 1.07797e-05
13 *1422:A *1432:B 0.000119242
14 *209:39 *214:38 0.00139565
15 *209:39 *222:18 2.18022e-05
16 *1331:B *209:39 0.000111679
17 *1345:C *1341:B1 0.000164778
18 *1347:B *1347:A_N 0.000468931
19 *1380:A1 *209:39 0
20 *1396:A *1341:B1 0.000302283
21 *1399:A1 *209:39 0.000554624
22 *1399:B1 *209:39 4.0843e-05
23 *1411:A1 *1347:A_N 5.83393e-05
24 *1417:A *209:12 0.000451564
25 *1421:A2 *1421:B1 0.000942809
26 *1421:A3 *1421:B1 0.000981119
27 *1422:C *1421:B1 2.65814e-06
28 *1422:C *1422:A 8.73389e-06
29 *1423:B *209:39 1.04035e-05
30 *1450:A *1341:B1 0.000679012
31 *1470:A *1347:A_N 5.83121e-06
32 *1514:D *209:39 0.000267444
33 *1514:RESET_B *209:39 8.04797e-05
34 *1525:D *209:39 3.93263e-05
35 *1536:A *1341:B1 9.47866e-05
36 *1539:A *1347:A_N 6.07575e-06
37 *42:20 *209:39 1.88656e-05
38 *47:95 *1421:B1 0.000208491
39 *47:95 *209:72 0.000814038
40 *57:16 *1347:A_N 8.23457e-05
41 *76:32 *1347:A_N 0.000638393
42 *94:8 *1341:B1 1.83847e-05
43 *103:71 *209:12 6.36139e-05
44 *103:71 *209:39 3.45765e-05
45 *133:10 *209:72 0.000731601
46 *136:8 *1341:B1 0.000138372
47 *138:12 *209:39 0.000633403
48 *155:8 *1421:B1 2.65814e-06
49 *155:18 *209:39 4.04619e-05
50 *165:26 *1347:A_N 3.65662e-05
51 *179:39 *1347:A_N 3.25159e-05
52 *179:52 *1347:A_N 3.21081e-06
53 *200:30 *1347:A_N 0.000192682
54 *200:30 *209:39 1.91769e-05
55 *200:30 *209:72 1.02564e-05
56 *207:100 *1421:B1 4.66108e-05
57 *207:110 *1421:B1 0.000183738
58 *208:61 *1422:A 4.60061e-05
59 *208:69 *209:72 9.14049e-05
*RES
1 *1514:Q *209:4 1.6 
2 *209:4 *209:12 22.145 
3 *209:12 *1341:B1 44.7 
4 *209:4 *209:39 30.5688 
5 *209:39 *1347:A_N 16.2275 
6 *209:39 *209:72 20.8316 
7 *209:72 *1422:A 2.74 
8 *209:72 *1421:B1 18.215 
*END

*D_NET *210 0.0293774
*CONN
*I *1357:A I *D sky130_fd_sc_hd__or2_1
*I *1364:A2 I *D sky130_fd_sc_hd__a31o_1
*I *1356:A I *D sky130_fd_sc_hd__nand2_1
*I *1360:B I *D sky130_fd_sc_hd__nand3_1
*I *1361:A1 I *D sky130_fd_sc_hd__a21o_1
*I *1342:C I *D sky130_fd_sc_hd__and4_4
*I *1496:Q O *D sky130_fd_sc_hd__dfrtp_4
*CAP
1 *1357:A 0.000130224
2 *1364:A2 0.000766405
3 *1356:A 0
4 *1360:B 1.41439e-05
5 *1361:A1 0
6 *1342:C 0.00117827
7 *1496:Q 0.000225726
8 *210:91 0.0018087
9 *210:66 0.00112572
10 *210:62 0.000274654
11 *210:60 0.00186585
12 *210:33 0.00285414
13 *210:10 0.00246744
14 *1360:B *218:90 9.03508e-06
15 *1364:A2 *1364:B1 0.000104334
16 *210:33 *1361:B1 0.000378286
17 *210:33 *1438:A 0.000193749
18 *210:33 *215:8 0
19 *210:33 *216:48 0.000453419
20 *210:33 *218:30 0.000258716
21 *210:60 *1369:A 0.000165807
22 *210:60 *1442:A 7.6778e-05
23 *210:60 *211:27 0.000593035
24 *210:60 *218:72 6.41634e-05
25 *210:66 *218:72 0.000269107
26 *210:66 *218:90 1.52352e-05
27 *210:91 *1364:B1 0.000183177
28 *210:91 *218:90 1.98144e-05
29 *210:91 *219:14 0.00127685
30 *1330:A *210:60 0.000252775
31 *1333:B1 *1357:A 0.000114492
32 *1333:B1 *210:62 0.000174553
33 *1348:D *210:60 0.000903986
34 *1351:A1 *210:33 0
35 *1360:C *1360:B 1.67131e-05
36 *1360:C *210:91 5.26465e-05
37 *1362:A *210:66 0.000269107
38 *1362:B *210:33 0.000700985
39 *1363:A *210:10 0.000349059
40 *1364:A3 *1364:A2 0.00197264
41 *1365:C *1364:A2 0.00063385
42 *1381:B *210:33 0.000265757
43 *1383:A *210:60 1.16664e-05
44 *1383:B *210:60 0.000147416
45 *1386:D *210:91 5.8023e-05
46 *1407:A *1342:C 0.000307962
47 *1407:A *210:33 2.84224e-05
48 *1414:B *210:33 7.94548e-05
49 *1414:B *210:91 5.86537e-05
50 *1415:A *1364:A2 4.06927e-05
51 *1424:A *210:91 8.50063e-05
52 *1430:A *210:60 9.63167e-05
53 *1435:B *1364:A2 2.83709e-05
54 *1439:B *210:60 2.03861e-05
55 *1445:B *1342:C 0.000349913
56 *1445:B *210:10 4.41356e-05
57 *1445:B *210:33 7.77782e-05
58 *1455:B *1357:A 7.9642e-06
59 *1458:A *210:10 0.000120059
60 *1459:B1_N *1357:A 0.000141933
61 *1459:B1_N *210:62 0.000196041
62 *1499:D *1342:C 1.00941e-05
63 *1510:RESET_B *210:91 5.92535e-05
64 *1513:D *210:60 0.000368369
65 *1516:D *210:60 1.36646e-05
66 *1519:CLK *1342:C 6.72833e-06
67 *1519:D *1342:C 0.000155103
68 *1519:RESET_B *1342:C 0.000192149
69 *1526:CLK *210:60 0.000154817
70 *1529:A *210:60 2.05641e-05
71 *22:20 *1357:A 4.87935e-05
72 *22:20 *210:62 9.39388e-06
73 *70:34 *210:60 0.000447515
74 *76:50 *1364:A2 6.70564e-05
75 *88:66 *210:60 1.88602e-05
76 *105:45 *210:33 0.000553312
77 *133:10 *1364:A2 5.50105e-05
78 *153:12 *210:60 0.000361026
79 *165:26 *1364:A2 0.000169871
80 *180:125 *210:91 9.9547e-05
81 *181:75 *1357:A 3.60738e-06
82 *183:20 *1342:C 0
83 *184:97 *210:60 0.000233994
84 *184:99 *210:60 0.000176306
85 *186:8 *1357:A 0.000119762
86 *198:16 *1357:A 4.21973e-05
87 *199:27 *210:91 8.49205e-05
88 *199:56 *210:60 0.00035606
89 *199:62 *210:33 6.41962e-05
90 *199:62 *210:60 1.05984e-05
91 *199:107 *1364:A2 4.41909e-05
92 *202:10 *210:60 0.000344023
93 *204:24 *210:91 9.67062e-05
94 *205:50 *1357:A 4.82919e-05
95 *206:49 *210:91 0.00052877
96 *208:41 *210:60 3.31051e-05
*RES
1 *1496:Q *210:10 7 
2 *210:10 *1342:C 23.18 
3 *210:10 *210:33 30.91 
4 *210:33 *1361:A1 1.6 
5 *210:33 *210:60 48 
6 *210:60 *210:62 2.4 
7 *210:62 *210:66 4.865 
8 *210:66 *1360:B 1.96 
9 *210:66 *210:91 13.5654 
10 *210:91 *1356:A 1.6 
11 *210:91 *1364:A2 28.67 
12 *210:62 *1357:A 7.44 
*END

*D_NET *211 0.0183799
*CONN
*I *1432:A I *D sky130_fd_sc_hd__and4_1
*I *1350:C I *D sky130_fd_sc_hd__and4_2
*I *1428:A I *D sky130_fd_sc_hd__nand2_1
*I *1427:A I *D sky130_fd_sc_hd__or2_1
*I *1515:Q O *D sky130_fd_sc_hd__dfrtp_1
*CAP
1 *1432:A 0.00114341
2 *1350:C 0
3 *1428:A 0.00123116
4 *1427:A 5.28883e-05
5 *1515:Q 0.000836756
6 *211:46 0.00145403
7 *211:27 0.00188941
8 *211:10 0.00123727
9 *1432:A *1350:B 0.00069412
10 *1432:A *1432:B 7.68414e-06
11 *1432:A *213:35 0.000265407
12 *1432:A *225:39 5.58489e-05
13 *211:46 *1350:D 4.77719e-05
14 *1333:B1 *211:27 6.97118e-05
15 *1334:A *1428:A 1.85349e-05
16 *1339:A2 *1432:A 0.00011492
17 *1358:C *1428:A 0.000184034
18 *1358:C *211:27 0.000273592
19 *1427:B *211:27 0.000667968
20 *1515:RESET_B *211:10 0.000222766
21 *1523:RESET_B *211:10 0.000235038
22 *1525:RESET_B *1428:A 0.001343
23 *22:20 *1428:A 3.59531e-06
24 *22:20 *211:27 0.000130779
25 *47:26 *211:10 0.000268176
26 *68:18 *1427:A 0.00015693
27 *68:18 *211:10 0.000180079
28 *70:34 *211:10 0.000154341
29 *77:12 *1432:A 0.000167983
30 *85:10 *1428:A 2.31737e-05
31 *93:8 *1432:A 5.00334e-05
32 *156:31 *1428:A 0
33 *163:6 *1432:A 0.00075421
34 *163:12 *1432:A 0.00125627
35 *165:51 *1428:A 1.41165e-05
36 *168:30 *1428:A 0.000159156
37 *179:131 *1432:A 0.000116806
38 *180:70 *211:46 0.000283383
39 *182:66 *1428:A 0
40 *187:145 *1432:A 0.000694562
41 *189:28 *1428:A 0.000173284
42 *189:87 *1428:A 0.000103314
43 *193:22 *1428:A 0.00019721
44 *199:56 *211:27 1.12578e-05
45 *203:33 *1427:A 0.000155642
46 *203:33 *211:10 0.000430547
47 *204:24 *1432:A 0.000122331
48 *204:53 *1432:A 4.99619e-05
49 *207:16 *1432:A 8.33066e-06
50 *207:81 *1432:A 7.61069e-05
51 *210:60 *211:27 0.000593035
*RES
1 *1515:Q *211:10 19.62 
2 *211:10 *1427:A 5.49 
3 *211:10 *211:27 14.425 
4 *211:27 *1428:A 29.04 
5 *211:27 *211:46 7.28 
6 *211:46 *1350:C 1.6 
7 *211:46 *1432:A 37.745 
*END

*D_NET *212 0.0181859
*CONN
*I *1432:B I *D sky130_fd_sc_hd__and4_1
*I *1350:D I *D sky130_fd_sc_hd__and4_2
*I *1431:A I *D sky130_fd_sc_hd__inv_2
*I *1516:Q O *D sky130_fd_sc_hd__dfrtp_2
*CAP
1 *1432:B 0.00204071
2 *1350:D 7.69162e-05
3 *1431:A 0.00155342
4 *1516:Q 0.00050431
5 *212:23 0.00239497
6 *212:8 0.00233507
7 *1431:A *214:38 0.000175952
8 *1431:A *224:65 0.000134511
9 *1431:A *225:39 0.000208598
10 *1432:B *221:52 0.00111528
11 *212:23 *225:39 8.02362e-05
12 *1392:B1 *1431:A 0.000496892
13 *1404:A *1432:B 0.000187202
14 *1421:B1 *1432:B 0.000111461
15 *1422:A *1432:B 0.000119242
16 *1423:B *1431:A 0.00123253
17 *1432:A *1432:B 7.68414e-06
18 *1463:A *1432:B 0.000380194
19 *1525:D *1431:A 0
20 *103:24 *1431:A 0.000481459
21 *103:24 *212:23 0.000335695
22 *107:38 *212:8 0.000709544
23 *115:22 *1431:A 0.000789394
24 *128:22 *1431:A 0.000478756
25 *144:14 *1431:A 7.23602e-05
26 *147:12 *1432:B 0.000689458
27 *147:14 *1432:B 0.000155176
28 *147:16 *1432:B 0.000270647
29 *155:8 *1432:B 1.01315e-05
30 *155:18 *1431:A 8.90199e-05
31 *156:10 *1431:A 0
32 *156:31 *212:23 0
33 *180:31 *1431:A 0.00024358
34 *180:58 *212:23 0.000249537
35 *204:24 *1432:B 4.51031e-05
36 *204:53 *1432:B 9.8681e-05
37 *208:61 *1432:B 0.000264411
38 *211:46 *1350:D 4.77719e-05
*RES
1 *1516:Q *212:8 10.26 
2 *212:8 *1431:A 42.21 
3 *212:8 *212:23 8.225 
4 *212:23 *1350:D 2.92 
5 *212:23 *1432:B 39.86 
*END

*D_NET *213 0.0158266
*CONN
*I *1435:A I *D sky130_fd_sc_hd__nand2_1
*I *1350:B I *D sky130_fd_sc_hd__and4_2
*I *1434:A I *D sky130_fd_sc_hd__or2_1
*I *1517:Q O *D sky130_fd_sc_hd__dfrtp_1
*CAP
1 *1435:A 0.000919375
2 *1350:B 0.000307284
3 *1434:A 0.000873505
4 *1517:Q 0
5 *213:35 0.00130567
6 *213:33 0.0012381
7 *213:4 0.0020326
8 *1350:B *225:39 0.000468358
9 *213:35 *225:39 0.000257563
10 *1330:A *213:33 0.000235335
11 *1365:C *213:33 0.000275136
12 *1432:A *1350:B 0.00069412
13 *1432:A *213:35 0.000265407
14 *1435:B *1435:A 3.09774e-05
15 *1451:A_N *213:33 0.000571216
16 *1451:C *213:33 4.41506e-05
17 *1455:B *213:33 0.000376504
18 *1479:A *213:33 0.000464001
19 *1509:RESET_B *213:33 0
20 *1510:CLK *1435:A 7.14699e-05
21 *1510:D *1435:A 0.000389558
22 *1511:RESET_B *213:33 0.000158543
23 *1512:RESET_B *213:33 8.23457e-05
24 *1517:CLK *1434:A 8.85291e-05
25 *1517:RESET_B *1434:A 0.000116492
26 *22:20 *213:33 0.000417208
27 *55:10 *213:33 0.000276887
28 *134:47 *213:33 0.000967139
29 *147:76 *1435:A 6.14974e-05
30 *164:12 *1434:A 3.53239e-05
31 *179:131 *213:33 0
32 *184:59 *213:33 6.5233e-05
33 *186:117 *1435:A 0.000192125
34 *188:31 *213:33 0.000272318
35 *188:37 *213:33 0.0011368
36 *191:16 *1434:A 0.00086603
37 *199:107 *1435:A 0.000125372
38 *205:10 *1435:A 5.98203e-05
39 *207:16 *213:33 5.6458e-05
40 *207:81 *1435:A 2.81489e-05
*RES
1 *1517:Q *213:4 1.6 
2 *213:4 *1434:A 16.315 
3 *213:4 *213:33 47.635 
4 *213:33 *213:35 3.165 
5 *213:35 *1350:B 11.73 
6 *213:35 *1435:A 20.59 
*END

*D_NET *214 0.0215267
*CONN
*I *1350:A I *D sky130_fd_sc_hd__and4_2
*I *1438:A I *D sky130_fd_sc_hd__inv_2
*I *1518:Q O *D sky130_fd_sc_hd__dfrtp_2
*CAP
1 *1350:A 0.000389654
2 *1438:A 0.000528897
3 *1518:Q 0.00152396
4 *214:38 0.00298322
5 *214:14 0.00436794
6 *1350:A *224:59 0.000205937
7 *1350:A *225:39 0.000939686
8 *1438:A *216:48 0.000725004
9 *1438:A *218:30 0.000168184
10 *214:14 *223:29 0.000373341
11 *214:38 *222:10 0.000335956
12 *214:38 *225:39 0.000432658
13 an[7] *214:14 1.96856e-05
14 *227:DIODE *214:38 0.000122651
15 *1339:A2 *1350:A 2.89036e-05
16 *1395:A *214:38 3.67779e-05
17 *1397:B *1438:A 0.000736308
18 *1431:A *214:38 0.000175952
19 *1505:RESET_B *214:14 0.00214323
20 *1537:A *214:14 0.000155138
21 *37:24 *214:14 0.000857314
22 *43:24 *214:38 0.000344599
23 *44:12 *214:14 0.00053701
24 *47:28 *214:38 7.23602e-05
25 *105:66 *1438:A 0.000208477
26 *115:8 *214:14 8.49205e-05
27 *115:10 *1350:A 1.37864e-05
28 *115:10 *214:38 9.88783e-05
29 *115:132 *1350:A 0.00022569
30 *138:12 *214:38 3.53405e-05
31 *155:18 *214:38 8.23457e-05
32 *167:18 *1438:A 7.03169e-05
33 *176:41 *1438:A 0.000345193
34 *179:10 *214:38 6.81984e-05
35 *180:31 *214:14 0.00026102
36 *180:44 *214:14 0.00015639
37 *191:41 *214:38 8.23457e-05
38 *209:39 *214:38 0.00139565
39 *210:33 *1438:A 0.000193749
*RES
1 *1518:Q *214:14 43.405 
2 *214:14 *214:38 46.095 
3 *214:38 *1438:A 20.43 
4 *214:14 *1350:A 15.18 
*END

*D_NET *215 0.0158493
*CONN
*I *1441:B1 I *D sky130_fd_sc_hd__a21oi_2
*I *1442:A I *D sky130_fd_sc_hd__and3_2
*I *1351:C1 I *D sky130_fd_sc_hd__o211ai_4
*I *1519:Q O *D sky130_fd_sc_hd__dfrtp_4
*CAP
1 *1441:B1 0.000108232
2 *1442:A 0.0010433
3 *1351:C1 0.000211231
4 *1519:Q 0.000130253
5 *215:35 0.00242815
6 *215:8 0.00161811
7 *1442:A *1369:A 4.7284e-05
8 *215:35 *216:48 0.000268932
9 *215:35 *223:29 0.000112893
10 *1351:A1 *215:8 4.94587e-05
11 *1351:A1 *215:35 0.0018934
12 *1351:A2 *1351:C1 0.00024382
13 *1362:C *215:8 2.20047e-05
14 *1362:C *215:35 9.95096e-05
15 *1383:A *215:35 0.000604259
16 *1387:C *215:35 0.000497909
17 *1441:A1 *1441:B1 8.40213e-05
18 *1441:A1 *1442:A 3.64622e-05
19 *1442:C *1442:A 0.00030615
20 *1443:B *215:35 5.14486e-05
21 *1445:B *215:8 0
22 *1449:C1 *1351:C1 0
23 *1456:A *1442:A 0.000361513
24 *1506:CLK *1441:B1 2.75145e-05
25 *1516:D *1442:A 0.000697398
26 *1519:RESET_B *215:8 7.9642e-06
27 *55:10 *1441:B1 2.11536e-05
28 *80:16 *1442:A 0.000190489
29 *89:16 *215:35 0.00141447
30 *103:71 *1351:C1 4.94587e-05
31 *130:12 *215:35 2.05661e-05
32 *139:55 *1351:C1 0.000717763
33 *143:18 *1351:C1 0.000627247
34 *175:34 *215:35 0.000294487
35 *180:80 *1441:B1 0.00015426
36 *180:80 *215:35 0.000133806
37 *184:8 *1442:A 0.00026102
38 *184:12 *1441:B1 0.00014475
39 *184:12 *215:35 9.50342e-06
40 *184:27 *1441:B1 4.93879e-05
41 *187:34 *1442:A 8.23457e-05
42 *190:22 *215:35 0.000157608
43 *202:10 *1442:A 0.000492947
44 *210:33 *215:8 0
45 *210:60 *1442:A 7.6778e-05
*RES
1 *1519:Q *215:8 5.745 
2 *215:8 *1351:C1 16.015 
3 *215:8 *215:35 41.595 
4 *215:35 *1442:A 28.87 
5 *215:35 *1441:B1 6.795 
*END

*D_NET *216 0.0300615
*CONN
*I *1340:A I *D sky130_fd_sc_hd__inv_2
*I *1444:A I *D sky130_fd_sc_hd__or2_1
*I *1449:A2 I *D sky130_fd_sc_hd__o211a_1
*I *1445:A I *D sky130_fd_sc_hd__nand2_1
*I *1520:Q O *D sky130_fd_sc_hd__dfrtp_4
*CAP
1 *1340:A 0.000705234
2 *1444:A 0
3 *1449:A2 0.000564673
4 *1445:A 0.00160041
5 *1520:Q 0.000928128
6 *216:54 0.00237913
7 *216:48 0.00142061
8 *216:32 0.00435765
9 *216:20 0.00337398
10 *1449:A2 *1449:A1 0.000132174
11 *216:32 *221:10 0.000841735
12 *216:48 *218:30 6.33103e-05
13 *216:48 *223:29 5.7158e-05
14 *216:54 *1342:B 0.000118266
15 *232:DIODE *1445:A 5.06989e-05
16 *1337:A *216:32 0.000337861
17 *1362:B *1445:A 0.000489119
18 *1375:B *216:20 8.23457e-05
19 *1405:A *1445:A 4.70326e-05
20 *1407:A *216:48 0.001386
21 *1409:B *1445:A 0.000156622
22 *1414:B *1340:A 0.000669954
23 *1414:B *216:48 0.000341962
24 *1438:A *216:48 0.000725004
25 *1444:B *216:54 3.05373e-05
26 *1445:B *216:54 0.000197851
27 *1446:C *1445:A 3.32132e-05
28 *1449:B1 *1449:A2 0.000132174
29 *1449:C1 *1449:A2 0.000119873
30 *1451:C *1340:A 0.000300896
31 *1457:B *216:48 0.000118081
32 *1500:CLK *216:32 1.79174e-05
33 *1500:D *216:32 2.76983e-05
34 *1500:RESET_B *216:32 0.0010273
35 *1502:RESET_B *216:48 0.00058806
36 *1517:RESET_B *1340:A 9.84609e-06
37 *1520:CLK *216:20 0.00023983
38 *1525:RESET_B *216:32 0.000152827
39 *26:10 *216:20 0.000159964
40 *52:32 *1449:A2 0.000109021
41 *53:18 *216:20 0.000643422
42 *54:30 *1340:A 0.000344053
43 *70:34 *1340:A 0.000231815
44 *80:16 *1340:A 7.03881e-05
45 *86:10 *1340:A 0
46 *95:109 *216:20 7.47115e-05
47 *105:66 *216:48 0.000168618
48 *105:107 *216:48 0.000130064
49 *118:18 *216:20 0.000158297
50 *129:10 *216:20 0.000135278
51 *139:47 *216:54 0
52 *170:26 *216:48 3.1835e-05
53 *170:64 *216:32 0.000328279
54 *175:34 *1340:A 0.00067288
55 *175:34 *216:48 0.000164639
56 *175:47 *1340:A 0.000352166
57 *180:48 *216:32 0.000486179
58 *180:58 *216:32 0.000292695
59 *180:156 *216:32 0.000194291
60 *184:97 *216:32 0.0002101
61 *200:63 *1445:A 8.11582e-05
62 *200:63 *1449:A2 0.000156127
63 *200:65 *1445:A 2.97339e-05
64 *204:53 *216:20 3.83194e-05
65 *208:69 *216:20 0.000249905
66 *210:33 *216:48 0.000453419
67 *215:35 *216:48 0.000268932
*RES
1 *1520:Q *216:20 30.24 
2 *216:20 *216:32 41.24 
3 *216:32 *216:48 42.36 
4 *216:48 *216:54 8.95 
5 *216:54 *1445:A 30.585 
6 *216:54 *1449:A2 13.895 
7 *216:48 *1444:A 1.6 
8 *216:32 *1340:A 26.905 
*END

*D_NET *217 0.0120478
*CONN
*I *1352:B1_N I *D sky130_fd_sc_hd__a21bo_2
*I *1449:A1 I *D sky130_fd_sc_hd__o211a_1
*I *1521:Q O *D sky130_fd_sc_hd__dfrtp_1
*CAP
1 *1352:B1_N 0.000575576
2 *1449:A1 0.00118247
3 *1521:Q 0.000568658
4 *217:10 0.00232671
5 *1449:A1 *1346:C 0
6 *1449:A1 *1372:B1 0.000217015
7 *1334:A *1352:B1_N 7.49327e-05
8 *1334:A *1449:A1 0.000525709
9 *1334:A *217:10 5.73518e-05
10 *1348:D *1449:A1 6.85607e-05
11 *1390:C *217:10 0.000263857
12 *1420:B1 *217:10 0.000891781
13 *1425:B *1352:B1_N 2.51213e-05
14 *1425:C *1352:B1_N 0.000761205
15 *1425:C *1449:A1 0.000188548
16 *1446:B *217:10 0.000233373
17 *1449:A2 *1449:A1 0.000132174
18 *1449:C1 *1449:A1 0.000711301
19 *1483:A *1449:A1 0.000215571
20 *23:16 *217:10 0.00142285
21 *48:12 *1449:A1 0.000131773
22 *61:24 *1449:A1 0
23 *95:83 *1352:B1_N 0.000278051
24 *95:98 *1352:B1_N 0.000105799
25 *115:76 *1352:B1_N 1.27695e-05
26 *115:101 *1352:B1_N 3.42932e-05
27 *129:16 *1352:B1_N 0.000505935
28 *138:12 *1352:B1_N 0.000154954
29 *174:36 *1449:A1 2.79424e-05
30 *180:31 *1352:B1_N 0.000157221
31 *201:45 *1449:A1 0
32 *203:33 *217:10 0.000196254
*RES
1 *1521:Q *217:10 24.32 
2 *217:10 *1449:A1 31.86 
3 *217:10 *1352:B1_N 22.0888 
*END

*D_NET *218 0.033062
*CONN
*I *1360:A I *D sky130_fd_sc_hd__nand3_1
*I *1364:A1 I *D sky130_fd_sc_hd__a31o_1
*I *1361:B1 I *D sky130_fd_sc_hd__a21o_1
*I *1342:B I *D sky130_fd_sc_hd__and4_4
*I *1497:Q O *D sky130_fd_sc_hd__dfrtp_4
*CAP
1 *1360:A 0
2 *1364:A1 0.000316069
3 *1361:B1 7.71343e-05
4 *1342:B 0.00148919
5 *1497:Q 0.00106616
6 *218:90 0.00371202
7 *218:72 0.00564433
8 *218:30 0.00286511
9 *218:14 0.00461332
10 *1342:B *1342:A 4.60061e-05
11 *218:72 *1333:A1_N 0.000105373
12 *218:72 *226:27 8.53113e-06
13 *218:90 *1327:A 3.32916e-05
14 *218:90 *1339:A1 4.43871e-06
15 *218:90 *224:8 4.66108e-05
16 an[4] *1364:A1 4.1652e-06
17 *1360:B *218:90 9.03508e-06
18 *1360:C *218:90 1.77595e-05
19 *1362:A *218:72 0.000199353
20 *1362:B *1342:B 0
21 *1365:A_N *218:72 0.000176819
22 *1387:C *1342:B 0.000122331
23 *1407:A *1342:B 0.000309187
24 *1409:A *1342:B 4.66108e-05
25 *1414:B *218:30 0.00130429
26 *1415:A *1342:B 0.000100111
27 *1424:A *218:90 0.000298082
28 *1433:A2 *218:72 0
29 *1438:A *218:30 0.000168184
30 *1443:B *218:30 0.000114835
31 *1457:B *218:30 0.000162889
32 *1466:A *1364:A1 0
33 *1466:A *218:90 7.10578e-05
34 *1497:CLK *218:14 7.36361e-05
35 *1497:CLK *218:72 0.000120524
36 *1497:D *218:14 0.000213393
37 *1497:RESET_B *218:14 6.78123e-05
38 *1497:RESET_B *218:72 0.000198682
39 *1504:D *1342:B 7.73292e-05
40 *1532:A *218:90 6.83447e-05
41 *1541:A *1342:B 0
42 *28:10 *218:14 1.75023e-05
43 *32:16 *218:14 6.61627e-05
44 *36:12 *1342:B 0.000839191
45 *50:30 *218:72 9.47017e-05
46 *94:16 *218:30 0.000233271
47 *95:36 *1342:B 0.000828222
48 *103:71 *1342:B 0.000129256
49 *105:66 *218:30 0.000697938
50 *105:107 *218:30 0.000265251
51 *107:38 *218:90 4.4745e-05
52 *128:22 *1342:B 0.000180682
53 *139:47 *1342:B 0
54 *147:66 *218:90 0.000122706
55 *149:6 *218:90 8.49205e-05
56 *149:14 *218:90 0.000118237
57 *164:12 *218:14 0
58 *166:10 *218:30 2.37234e-05
59 *176:12 *218:30 0.000898263
60 *176:41 *1342:B 0
61 *188:65 *218:72 0.000115254
62 *196:22 *1342:B 0
63 *196:22 *218:30 0.000516844
64 *199:27 *218:90 8.34281e-06
65 *199:56 *218:72 0.000598447
66 *199:62 *1361:B1 0.00036741
67 *199:62 *218:30 0.000230024
68 *199:107 *218:90 0.000263595
69 *201:45 *1342:B 1.91597e-05
70 *206:58 *218:90 0.000230429
71 *206:69 *218:90 0.000928786
72 *210:33 *1361:B1 0.000378286
73 *210:33 *218:30 0.000258716
74 *210:60 *218:72 6.41634e-05
75 *210:66 *218:72 0.000269107
76 *210:66 *218:90 1.52352e-05
77 *210:91 *218:90 1.98144e-05
78 *216:48 *218:30 6.33103e-05
79 *216:54 *1342:B 0.000118266
*RES
1 *1497:Q *218:14 19.535 
2 *218:14 *218:30 42.35 
3 *218:30 *1342:B 35.555 
4 *218:30 *1361:B1 5.155 
5 *218:14 *218:72 38.405 
6 *218:72 *218:90 47.31 
7 *218:90 *1364:A1 8.34 
8 *218:72 *1360:A 1.6 
*END

*D_NET *219 0.02758
*CONN
*I *1364:B1 I *D sky130_fd_sc_hd__a31o_1
*I *236:DIODE I *D sky130_fd_sc_hd__diode_2
*I *1342:A I *D sky130_fd_sc_hd__and4_4
*I *1498:Q O *D sky130_fd_sc_hd__dfrtp_2
*CAP
1 *1364:B1 0.00115154
2 *236:DIODE 0
3 *1342:A 0.000282979
4 *1498:Q 1.68318e-05
5 *219:20 0.00135952
6 *219:14 0.00481618
7 *219:10 0.00490801
8 *1333:B1 *219:14 0.000214507
9 *1341:B1 *219:20 0.00190604
10 *1342:B *1342:A 4.60061e-05
11 *1362:A *219:14 7.53186e-05
12 *1364:A2 *1364:B1 0.000104334
13 *1364:A3 *1364:B1 0.00162752
14 *1404:B *1364:B1 4.67714e-05
15 *1407:A *1342:A 0.000213504
16 *1407:A *219:20 3.10886e-05
17 *1414:B *219:14 0.000440394
18 *1415:A *219:14 0.000463345
19 *1446:C *219:20 0
20 *1450:A *219:20 0.000492925
21 *1503:D *219:14 0
22 *1509:D *219:20 0.00103927
23 *1510:D *1364:B1 0.000895378
24 *1510:RESET_B *1364:B1 0.000162018
25 *1511:D *1364:B1 5.04105e-05
26 *76:50 *1364:B1 0
27 *95:12 *219:20 0
28 *95:109 *219:10 3.85204e-05
29 *120:18 *219:10 3.85204e-05
30 *136:8 *219:20 0.00328668
31 *165:26 *1364:B1 0
32 *198:16 *1364:B1 0.000275366
33 *198:16 *219:14 0.00183556
34 *206:49 *219:14 0.000301378
35 *210:91 *1364:B1 0.000183177
36 *210:91 *219:14 0.00127685
*RES
1 *1498:Q *219:10 4.5875 
2 *219:10 *219:14 9.68587 
3 *219:14 *219:20 46.8875 
4 *219:20 *1342:A 6.565 
5 *219:20 *236:DIODE 1.6 
6 *219:10 *1364:B1 27.3834 
*END

*D_NET *220 0.0334881
*CONN
*I *1373:B I *D sky130_fd_sc_hd__and3_1
*I *1343:D I *D sky130_fd_sc_hd__and4_1
*I *1368:A I *D sky130_fd_sc_hd__nand2_1
*I *1372:A1 I *D sky130_fd_sc_hd__a21oi_1
*I *1369:A I *D sky130_fd_sc_hd__or2_1
*I *1499:Q O *D sky130_fd_sc_hd__dfrtp_4
*CAP
1 *1373:B 3.81447e-05
2 *1343:D 0
3 *1368:A 0
4 *1372:A1 0
5 *1369:A 0.00215237
6 *1499:Q 0.00116036
7 *220:106 0.00219019
8 *220:89 0.00329343
9 *220:66 0.00236625
10 *220:55 0.0019695
11 *220:12 0.00405737
12 *1373:B *221:52 1.4399e-05
13 *220:55 *1372:B1 0.000238404
14 *220:66 *1372:B1 8.40213e-05
15 *220:89 *1343:B 0.00017734
16 *220:89 *221:37 1.16578e-05
17 *220:89 *221:52 3.66286e-05
18 *220:106 *221:52 0.000560691
19 *1336:A2 *1369:A 3.81256e-05
20 *1348:D *1369:A 0.00028463
21 *1362:A *1369:A 1.60158e-05
22 *1362:A *220:12 0.00047681
23 *1365:C *220:106 0.000447963
24 *1370:C *220:106 0.00054701
25 *1380:A2 *220:106 0.000263595
26 *1380:B1 *220:106 0
27 *1384:A *220:12 0.000551724
28 *1389:A *220:12 0
29 *1430:A *1369:A 0.000275076
30 *1442:A *1369:A 4.7284e-05
31 *1449:B1 *1369:A 0.000417392
32 *1450:B *220:12 0.000128957
33 *1450:B *220:55 0.000182533
34 *1461:A *220:55 0.000164554
35 *1494:A *220:66 7.30547e-05
36 *1504:D *220:12 0.000334058
37 *1513:D *1369:A 0.000275104
38 *1514:RESET_B *220:89 7.55708e-05
39 *1516:D *1369:A 5.1985e-06
40 *1529:A *1369:A 0.000918722
41 *1530:A *1369:A 7.60507e-05
42 *39:22 *1369:A 0.000331192
43 *44:12 *220:89 0.000625304
44 *80:16 *1369:A 8.23457e-05
45 *88:66 *1369:A 0
46 *95:36 *1369:A 0.000617597
47 *95:83 *220:66 0.000562654
48 *118:10 *220:106 6.02005e-05
49 *118:18 *220:106 0.0019738
50 *129:10 *220:89 0.00017734
51 *153:12 *1369:A 0.000169238
52 *154:12 *220:106 0.000275555
53 *168:30 *1369:A 0.000159501
54 *180:31 *220:66 0.000242837
55 *180:31 *220:89 0.00162313
56 *187:34 *1369:A 8.23457e-05
57 *191:41 *220:89 0.000476586
58 *191:43 *220:66 0.000174279
59 *191:43 *220:89 0.000997883
60 *193:22 *1369:A 0.000154977
61 *200:97 *220:12 4.92193e-05
62 *207:122 *220:66 0.000536078
63 *210:60 *1369:A 0.000165807
*RES
1 *1499:Q *220:12 23.495 
2 *220:12 *1369:A 31.8942 
3 *220:12 *220:55 9.42 
4 *220:55 *1372:A1 1.6 
5 *220:55 *220:66 19.85 
6 *220:66 *1368:A 3.6 
7 *220:66 *220:89 34.665 
8 *220:89 *1343:D 1.6 
9 *220:89 *220:106 49.63 
10 *220:106 *1373:B 2.05 
*END

*D_NET *221 0.0217501
*CONN
*I *1373:A I *D sky130_fd_sc_hd__and3_1
*I *1343:C I *D sky130_fd_sc_hd__and4_1
*I *1372:B1 I *D sky130_fd_sc_hd__a21oi_1
*I *1500:Q O *D sky130_fd_sc_hd__dfrtp_2
*CAP
1 *1373:A 0
2 *1343:C 0
3 *1372:B1 0.00101168
4 *1500:Q 0.000428476
5 *221:52 0.00167876
6 *221:37 0.00332685
7 *221:10 0.00308824
8 *1372:B1 *222:10 1.07797e-05
9 *1372:B1 *226:16 0
10 *221:10 *1375:A 3.86802e-05
11 *221:37 *224:59 0.000155497
12 *1329:B *221:37 0.000938695
13 *1330:A *221:10 9.86509e-05
14 *1373:B *221:52 1.4399e-05
15 *1373:C *221:52 0.000338773
16 *1377:C *221:52 0.000315533
17 *1394:A *221:52 6.24643e-05
18 *1421:B1 *221:52 1.07797e-05
19 *1432:B *221:52 0.00111528
20 *1433:A1 *1372:B1 0.000133635
21 *1449:A1 *1372:B1 0.000217015
22 *1450:B *1372:B1 1.60203e-05
23 *1452:D1 *221:37 0.000110774
24 *1461:A *1372:B1 0.000237697
25 *1495:RESET_B *1372:B1 0.000830558
26 *1495:RESET_B *221:10 0.000461041
27 *47:95 *221:52 0.000405185
28 *48:12 *1372:B1 0.000551899
29 *95:68 *1372:B1 4.82863e-05
30 *95:83 *1372:B1 0.00010978
31 *118:18 *221:52 0
32 *120:18 *221:52 0.000111302
33 *147:10 *221:52 0.00024952
34 *147:16 *221:52 0.000273851
35 *159:26 *1372:B1 0.000649584
36 *159:26 *221:10 2.82887e-05
37 *159:26 *221:37 4.66108e-05
38 *170:64 *221:10 0.000480808
39 *181:31 *1372:B1 0.000513519
40 *188:65 *221:10 0.000365843
41 *189:28 *221:37 0.000305658
42 *190:58 *221:37 0.00016312
43 *190:73 *221:37 1.19928e-05
44 *207:110 *221:52 0.00102144
45 *216:32 *221:10 0.000841735
46 *220:55 *1372:B1 0.000238404
47 *220:66 *1372:B1 8.40213e-05
48 *220:89 *221:37 1.16578e-05
49 *220:89 *221:52 3.66286e-05
50 *220:106 *221:52 0.000560691
*RES
1 *1500:Q *221:10 17.355 
2 *221:10 *1372:B1 31.815 
3 *221:10 *221:37 26.525 
4 *221:37 *1343:C 1.6 
5 *221:37 *221:52 49.12 
6 *221:52 *1373:A 1.6 
*END

*D_NET *222 0.0114643
*CONN
*I *1375:A I *D sky130_fd_sc_hd__or2_1
*I *1343:B I *D sky130_fd_sc_hd__and4_1
*I *1376:A I *D sky130_fd_sc_hd__nand2_1
*I *1501:Q O *D sky130_fd_sc_hd__dfrtp_1
*CAP
1 *1375:A 0.000443814
2 *1343:B 0.000103267
3 *1376:A 0
4 *1501:Q 0.000352805
5 *222:18 0.000927264
6 *222:10 0.00162062
7 *1375:A *226:16 0.000394947
8 *222:10 *226:16 1.15688e-05
9 *1362:A *1375:A 0.000116216
10 *1372:B1 *222:10 1.07797e-05
11 *1399:A1 *222:18 1.91597e-05
12 *1399:A2 *222:18 0.00015639
13 *1399:B1 *222:18 0.000119756
14 *1439:B *1375:A 0.000247678
15 *1439:B *222:10 0.000155227
16 *1514:RESET_B *222:18 0.00165386
17 *43:24 *222:10 0.00063593
18 *53:18 *1375:A 0.000112754
19 *95:109 *1343:B 0.000297455
20 *95:109 *222:18 0.000136991
21 *129:10 *1343:B 7.02113e-05
22 *129:10 *222:18 7.49422e-05
23 *155:18 *222:18 5.39667e-05
24 *159:26 *1375:A 0.000514675
25 *159:26 *222:10 0.000348524
26 *188:65 *1375:A 0.00051145
27 *203:12 *222:18 0.00180027
28 *209:39 *222:18 2.18022e-05
29 *214:38 *222:10 0.000335956
30 *220:89 *1343:B 0.00017734
31 *221:10 *1375:A 3.86802e-05
*RES
1 *1501:Q *222:10 13.095 
2 *222:10 *222:18 27.475 
3 *222:18 *1376:A 3.6 
4 *222:18 *1343:B 7.275 
5 *222:10 *1375:A 17.22 
*END

*D_NET *223 0.013086
*CONN
*I *1343:A I *D sky130_fd_sc_hd__and4_1
*I *1379:A I *D sky130_fd_sc_hd__inv_2
*I *1502:Q O *D sky130_fd_sc_hd__dfrtp_1
*CAP
1 *1343:A 0
2 *1379:A 0.00114679
3 *1502:Q 0
4 *223:29 0.00116688
5 *223:4 0.00231367
6 *1383:A *223:29 0.000495441
7 *1439:B *1379:A 0.00103036
8 *1446:A *223:29 0.00032587
9 *1446:C *223:29 2.8323e-05
10 *1454:B1 *223:29 0.000669138
11 *44:12 *223:29 0.00322774
12 *95:109 *223:29 0.00015527
13 *105:70 *223:29 0.00023155
14 *105:74 *223:29 0.000918897
15 *115:8 *223:29 0.000251685
16 *168:8 *1379:A 1.74678e-05
17 *180:31 *223:29 0.00026102
18 *180:44 *223:29 0.000147196
19 *205:10 *223:29 0.00015527
20 *214:14 *223:29 0.000373341
21 *215:35 *223:29 0.000112893
22 *216:48 *223:29 5.7158e-05
*RES
1 *1502:Q *223:4 1.6 
2 *223:4 *1379:A 16.405 
3 *223:4 *223:29 48.015 
4 *223:29 *1343:A 3.6 
*END

*D_NET *224 0.0265638
*CONN
*I *1386:B I *D sky130_fd_sc_hd__and4_2
*I *1385:A1 I *D sky130_fd_sc_hd__a21oi_1
*I *1382:A I *D sky130_fd_sc_hd__nand2_1
*I *1349:A1 I *D sky130_fd_sc_hd__o31a_1
*I *1381:A I *D sky130_fd_sc_hd__or2_1
*I *1503:Q O *D sky130_fd_sc_hd__dfrtp_4
*CAP
1 *1386:B 0.000893137
2 *1385:A1 3.69588e-05
3 *1382:A 0.000121085
4 *1349:A1 0.000150304
5 *1381:A 0.00222354
6 *1503:Q 1.36534e-05
7 *224:65 0.000709587
8 *224:59 0.00186192
9 *224:14 0.00422447
10 *224:8 0.00152096
11 *224:59 *1339:A1 1.86475e-05
12 *224:59 *1385:B1 0.000126412
13 *1330:A *1381:A 0.000192125
14 *1337:A *224:59 0.0018884
15 *1339:A2 *1381:A 1.83756e-05
16 *1339:A2 *224:14 1.19928e-05
17 *1339:A2 *224:59 7.05574e-05
18 *1350:A *224:59 0.000205937
19 *1358:C *1381:A 0.00017381
20 *1375:B *224:14 0.000410785
21 *1383:C *224:59 0.000169048
22 *1383:C *224:65 0.000104111
23 *1392:B1 *1382:A 0.000384445
24 *1392:B1 *224:65 4.04857e-05
25 *1394:C *1386:B 0.00046451
26 *1406:C *224:59 9.97257e-06
27 *1406:C *224:65 0
28 *1420:B1 *1385:A1 4.66108e-05
29 *1431:A *224:65 0.000134511
30 *1455:A *1386:B 0.0001767
31 *1455:A *224:14 7.37621e-05
32 *1456:A *1381:A 0.000329982
33 *1461:A *224:59 0.000107796
34 *1494:A *1349:A1 8.33066e-06
35 *1494:A *1382:A 0.000194969
36 *1498:D *1381:A 0.00157992
37 *1498:D *1386:B 0.000143041
38 *1498:D *224:14 0.000354805
39 *1503:RESET_B *1386:B 0
40 *1513:RESET_B *224:59 3.1562e-06
41 *1524:CLK *224:59 1.74678e-05
42 *1524:D *224:59 9.56774e-05
43 *1532:A *224:59 0
44 *45:24 *1381:A 5.38986e-06
45 *53:18 *1381:A 2.67503e-05
46 *53:18 *224:14 1.80164e-05
47 *80:16 *1381:A 0.00231646
48 *97:12 *224:59 0.000160089
49 *97:18 *1349:A1 0
50 *97:18 *224:59 4.76263e-05
51 *97:18 *224:65 0.000838662
52 *104:16 *1349:A1 0
53 *105:20 *224:59 6.01415e-05
54 *105:20 *224:65 0.000145682
55 *115:10 *224:59 0.000591715
56 *115:22 *224:59 0.000157267
57 *115:132 *224:59 0.000370945
58 *138:12 *1349:A1 0
59 *143:24 *224:65 0.000247296
60 *149:14 *224:8 4.66108e-05
61 *149:46 *1386:B 0.000124938
62 *157:14 *224:59 3.62533e-05
63 *168:55 *1381:A 0.000412672
64 *179:10 *224:59 0.000142463
65 *179:110 *224:14 9.30787e-05
66 *179:131 *1386:B 0.000355315
67 *179:131 *224:14 0.000211318
68 *180:31 *1349:A1 5.51406e-06
69 *180:31 *1382:A 9.56017e-06
70 *180:31 *224:65 0.000346156
71 *201:14 *1381:A 0.000185836
72 *207:122 *224:65 9.40318e-05
73 *218:90 *224:8 4.66108e-05
74 *221:37 *224:59 0.000155497
*RES
1 *1503:Q *224:8 4.05 
2 *224:8 *224:14 12.905 
3 *224:14 *1381:A 45.575 
4 *224:14 *224:59 44.23 
5 *224:59 *224:65 15.26 
6 *224:65 *1349:A1 7.49 
7 *224:65 *1382:A 5.77 
8 *224:59 *1385:A1 4.05 
9 *224:8 *1386:B 20.445 
*END

*D_NET *225 0.0234354
*CONN
*I *1385:B1 I *D sky130_fd_sc_hd__a21oi_1
*I *1386:A I *D sky130_fd_sc_hd__and4_2
*I *1346:C I *D sky130_fd_sc_hd__or4_1
*I *1504:Q O *D sky130_fd_sc_hd__dfrtp_1
*CAP
1 *1385:B1 0.000213076
2 *1386:A 0.000176924
3 *1346:C 0.00044597
4 *1504:Q 0.000728553
5 *225:39 0.00155596
6 *225:29 0.00200415
7 *225:12 0.00158657
8 *230:DIODE *1386:A 0.000124007
9 *1350:A *225:39 0.000939686
10 *1350:B *225:39 0.000468358
11 *1383:C *225:39 0.000109387
12 *1394:C *1386:A 0.000441992
13 *1406:B *225:39 7.4027e-05
14 *1406:C *1385:B1 0.00034774
15 *1406:C *225:39 0.000636423
16 *1414:B *225:12 0.000158965
17 *1429:B *225:29 4.60814e-05
18 *1431:A *225:39 0.000208598
19 *1432:A *225:39 5.58489e-05
20 *1449:A1 *1346:C 0
21 *1449:C1 *1346:C 0.000233593
22 *1452:C1 *225:12 0.0010445
23 *1461:A *225:29 0.00011895
24 *1483:A *1346:C 2.37234e-05
25 *1504:D *225:12 8.23457e-05
26 *1504:RESET_B *225:12 0.00145792
27 *1521:D *1346:C 0.00103245
28 *1521:D *225:29 0.00016358
29 *22:20 *1386:A 0.000945949
30 *57:16 *1385:B1 7.20926e-05
31 *57:16 *225:29 0.00143781
32 *68:18 *1346:C 0.000794063
33 *68:18 *225:29 0.000170881
34 *97:67 *1385:B1 8.23457e-05
35 *97:67 *225:29 0.000891044
36 *103:24 *225:39 0.000810628
37 *105:20 *1385:B1 2.50166e-05
38 *115:22 *225:39 0.000508205
39 *134:47 *1386:A 0.000122331
40 *141:14 *225:39 6.63219e-06
41 *144:14 *225:39 7.23602e-05
42 *167:18 *225:12 6.26945e-05
43 *179:10 *225:39 0.000132184
44 *180:58 *225:39 8.35221e-06
45 *180:125 *225:39 1.58858e-05
46 *194:24 *225:29 9.17211e-05
47 *199:12 *225:39 0.000656001
48 *199:107 *225:39 0.000107444
49 *200:63 *1346:C 0.000271119
50 *204:24 *225:39 0.000416628
51 *207:16 *225:39 6.07139e-05
52 *207:26 *225:39 0.000297023
53 *212:23 *225:39 8.02362e-05
54 *213:35 *225:39 0.000257563
55 *214:38 *225:39 0.000432658
56 *224:59 *1385:B1 0.000126412
*RES
1 *1504:Q *225:12 22.455 
2 *225:12 *1346:C 18.465 
3 *225:12 *225:29 17.705 
4 *225:29 *225:39 47.5 
5 *225:39 *1386:A 10.675 
6 *225:29 *1385:B1 10.835 
*END

*D_NET *226 0.0302791
*CONN
*I *1336:A1 I *D sky130_fd_sc_hd__a21oi_1
*I *1333:A1_N I *D sky130_fd_sc_hd__o2bb2a_1
*I *1327:A I *D sky130_fd_sc_hd__and3_2
*I *1339:A1 I *D sky130_fd_sc_hd__a21oi_1
*I *1338:A1 I *D sky130_fd_sc_hd__a21oi_1
*I *1522:Q O *D sky130_fd_sc_hd__dfrtp_4
*CAP
1 *1336:A1 0.00108049
2 *1333:A1_N 0.000676762
3 *1327:A 0.00243952
4 *1339:A1 0.000367246
5 *1338:A1 8.03424e-05
6 *1522:Q 1.20605e-05
7 *226:33 0.0037884
8 *226:27 0.00179331
9 *226:16 0.00142394
10 *226:6 0.00230123
11 *1327:C *1327:A 0.0015805
12 *1333:B2 *1333:A1_N 9.8639e-05
13 *1335:A *226:6 4.66108e-05
14 *1335:A *226:16 0.000153816
15 *1338:A2 *1338:A1 4.66108e-05
16 *1339:A2 *1339:A1 0.000324331
17 *1345:D *1333:A1_N 0.00102619
18 *1349:B1 *1336:A1 4.85146e-05
19 *1362:A *226:16 0.000128703
20 *1372:B1 *226:16 0
21 *1375:A *226:16 0.000394947
22 *1375:B *1339:A1 1.92979e-05
23 *1390:C *1336:A1 0.000153502
24 *1400:B *1333:A1_N 7.36599e-05
25 *1426:A *1339:A1 0.000108576
26 *1426:A *226:16 0.00031233
27 *1439:B *226:16 0.000392707
28 *1459:A1 *1333:A1_N 8.23457e-05
29 *1459:A2 *1333:A1_N 0.00178076
30 *1498:CLK *1327:A 0.000135006
31 *1503:RESET_B *1327:A 8.97006e-07
32 *1514:D *1338:A1 3.24154e-05
33 *1520:RESET_B *1327:A 0
34 *1532:A *1327:A 4.23748e-05
35 *1532:A *1339:A1 9.05827e-05
36 *50:30 *226:27 3.86814e-05
37 *53:18 *1339:A1 0.000157401
38 *53:18 *226:16 0.000111087
39 *61:24 *226:16 0.000485881
40 *87:24 *1336:A1 9.57858e-05
41 *89:16 *1333:A1_N 4.82919e-05
42 *97:67 *1336:A1 0.000153053
43 *139:14 *1327:A 0.00010225
44 *143:18 *1336:A1 0.000792834
45 *147:84 *1333:A1_N 0.000130106
46 *174:36 *1336:A1 0.00113849
47 *181:31 *226:6 3.57349e-05
48 *181:31 *226:16 0.000154982
49 *187:111 *1338:A1 0.00026617
50 *187:145 *1327:A 0.000223522
51 *187:145 *1339:A1 0.000261345
52 *188:65 *1333:A1_N 2.62104e-05
53 *188:65 *226:16 0.000149502
54 *188:65 *226:27 9.99049e-05
55 *189:95 *1338:A1 6.00027e-05
56 *191:30 *226:16 0.000273572
57 *192:16 *1327:A 0.000376362
58 *199:56 *226:33 0.000744764
59 *199:107 *226:33 0.000375343
60 *206:16 *1333:A1_N 0.000157489
61 *206:16 *226:27 1.61696e-05
62 *206:24 *226:16 0.000695047
63 *206:24 *226:27 0.00011296
64 *206:32 *1336:A1 0.00155699
65 *207:81 *1327:A 9.30787e-05
66 *208:61 *1339:A1 0.000127635
67 *218:72 *1333:A1_N 0.000105373
68 *218:72 *226:27 8.53113e-06
69 *218:90 *1327:A 3.32916e-05
70 *218:90 *1339:A1 4.43871e-06
71 *222:10 *226:16 1.15688e-05
72 *224:59 *1339:A1 1.86475e-05
*RES
1 *1522:Q *226:6 2.05 
2 *226:6 *226:16 30.41 
3 *226:16 *1338:A1 6.12 
4 *226:16 *226:27 3.165 
5 *226:27 *226:33 16.18 
6 *226:33 *1339:A1 12.585 
7 *226:33 *1327:A 43.525 
8 *226:27 *1333:A1_N 26.8237 
9 *226:6 *1336:A1 31.925 
*END
