*SPEF "ieee 1481-1999"
*DESIGN "ZeroToFiveCounter"
*DATE "12:24:30 Monday May 19, 2025"
*VENDOR "The OpenROAD Project"
*PROGRAM "OpenROAD"
*VERSION "b16bda7e82721d10566ff7e2b68f1ff0be9f9e38"
*DESIGN_FLOW "NAME_SCOPE LOCAL" "PIN_CAP NONE"
*DIVIDER /
*DELIMITER :
*BUS_DELIMITER []
*T_UNIT 1 NS
*C_UNIT 1 PF
*R_UNIT 1 OHM
*L_UNIT 1 HENRY

*NAME_MAP
*3 net10
*4 net11
*5 net12
*6 net13
*7 net14
*8 net15
*9 net16
*10 net9
*11 clk
*12 rst
*13 seg[0]
*14 seg[1]
*15 seg[2]
*16 seg[3]
*17 seg[4]
*18 seg[5]
*19 seg[6]
*20 _000_
*21 _001_
*22 _002_
*23 _003_
*24 _004_
*25 _005_
*26 _006_
*27 _007_
*28 _008_
*29 _009_
*30 _010_
*31 _011_
*32 _012_
*33 _013_
*34 _014_
*35 _015_
*36 _016_
*37 _017_
*38 _018_
*39 _019_
*40 _020_
*41 _021_
*42 _022_
*43 _023_
*44 _024_
*45 _025_
*46 _026_
*47 _027_
*48 _028_
*49 _029_
*50 _030_
*51 _031_
*52 _032_
*53 _033_
*54 _034_
*55 _035_
*56 _036_
*57 _037_
*58 _038_
*59 _039_
*60 _040_
*61 _041_
*62 _042_
*63 _043_
*64 _044_
*65 _045_
*66 _046_
*67 _047_
*68 _048_
*69 _049_
*70 _050_
*71 _051_
*72 _052_
*73 _053_
*74 _054_
*75 _055_
*76 _056_
*77 _057_
*78 _058_
*79 _059_
*80 _060_
*81 _061_
*82 _062_
*83 _063_
*84 _064_
*85 _065_
*86 _066_
*87 _067_
*88 _068_
*89 _069_
*90 _070_
*91 _071_
*92 _072_
*93 _073_
*94 _074_
*95 _075_
*96 _076_
*97 _077_
*98 _078_
*99 _079_
*100 _080_
*101 _081_
*102 _082_
*103 _083_
*104 _084_
*105 _085_
*106 _086_
*107 _087_
*108 _088_
*109 _089_
*110 _090_
*111 _091_
*112 _092_
*113 _093_
*114 _094_
*115 _095_
*116 _096_
*117 _097_
*118 _098_
*119 _099_
*120 _100_
*121 _101_
*122 _102_
*123 _103_
*124 _104_
*125 _105_
*126 _106_
*127 _107_
*128 _108_
*129 _109_
*130 _110_
*131 _111_
*132 _112_
*133 _113_
*134 _114_
*135 _115_
*136 _116_
*137 _117_
*138 _118_
*139 _119_
*140 _120_
*141 _121_
*142 _122_
*143 _123_
*144 _124_
*145 _125_
*146 _126_
*147 _127_
*148 _128_
*149 _129_
*150 _130_
*151 _131_
*152 _132_
*153 _133_
*154 _134_
*155 _135_
*156 _136_
*157 _137_
*158 _138_
*159 _139_
*160 _140_
*161 _141_
*162 _142_
*163 _143_
*164 _144_
*165 _145_
*166 _146_
*167 _147_
*168 _148_
*169 _149_
*170 _150_
*171 _151_
*172 _152_
*173 _153_
*174 _154_
*175 _155_
*176 _156_
*177 _157_
*178 _158_
*179 _159_
*180 _160_
*181 _161_
*182 clknet_0_clk
*183 clknet_2_0__leaf_clk
*184 clknet_2_1__leaf_clk
*185 clknet_2_2__leaf_clk
*186 clknet_2_3__leaf_clk
*187 decoder\.digit\[0\]
*188 decoder\.digit\[1\]
*189 decoder\.digit\[2\]
*190 decoder\.digit\[3\]
*191 net1
*192 net2
*193 net3
*194 net4
*195 net5
*196 net6
*197 net7
*198 net8
*199 one_second_counter\[0\]
*200 one_second_counter\[10\]
*201 one_second_counter\[11\]
*202 one_second_counter\[12\]
*203 one_second_counter\[13\]
*204 one_second_counter\[14\]
*205 one_second_counter\[15\]
*206 one_second_counter\[16\]
*207 one_second_counter\[17\]
*208 one_second_counter\[18\]
*209 one_second_counter\[19\]
*210 one_second_counter\[1\]
*211 one_second_counter\[20\]
*212 one_second_counter\[21\]
*213 one_second_counter\[22\]
*214 one_second_counter\[23\]
*215 one_second_counter\[24\]
*216 one_second_counter\[25\]
*217 one_second_counter\[26\]
*218 one_second_counter\[2\]
*219 one_second_counter\[3\]
*220 one_second_counter\[4\]
*221 one_second_counter\[5\]
*222 one_second_counter\[6\]
*223 one_second_counter\[7\]
*224 one_second_counter\[8\]
*225 one_second_counter\[9\]
*226 one_second_enable
*227 ANTENNA_1
*228 ANTENNA_10
*229 ANTENNA_11
*230 ANTENNA_2
*231 ANTENNA_3
*232 ANTENNA_4
*233 ANTENNA_5
*234 ANTENNA_6
*235 ANTENNA_7
*236 ANTENNA_8
*237 ANTENNA_9
*238 FILLER_0_0_109
*239 FILLER_0_0_113
*240 FILLER_0_0_125
*241 FILLER_0_0_137
*242 FILLER_0_0_141
*243 FILLER_0_0_149
*244 FILLER_0_0_15
*245 FILLER_0_0_155
*246 FILLER_0_0_167
*247 FILLER_0_0_169
*248 FILLER_0_0_181
*249 FILLER_0_0_193
*250 FILLER_0_0_197
*251 FILLER_0_0_209
*252 FILLER_0_0_217
*253 FILLER_0_0_222
*254 FILLER_0_0_225
*255 FILLER_0_0_229
*256 FILLER_0_0_27
*257 FILLER_0_0_29
*258 FILLER_0_0_3
*259 FILLER_0_0_41
*260 FILLER_0_0_53
*261 FILLER_0_0_57
*262 FILLER_0_0_69
*263 FILLER_0_0_73
*264 FILLER_0_0_83
*265 FILLER_0_0_85
*266 FILLER_0_0_97
*267 FILLER_0_10_102
*268 FILLER_0_10_114
*269 FILLER_0_10_126
*270 FILLER_0_10_138
*271 FILLER_0_10_141
*272 FILLER_0_10_15
*273 FILLER_0_10_153
*274 FILLER_0_10_165
*275 FILLER_0_10_183
*276 FILLER_0_10_195
*277 FILLER_0_10_197
*278 FILLER_0_10_209
*279 FILLER_0_10_221
*280 FILLER_0_10_229
*281 FILLER_0_10_27
*282 FILLER_0_10_3
*283 FILLER_0_10_32
*284 FILLER_0_10_44
*285 FILLER_0_10_56
*286 FILLER_0_10_60
*287 FILLER_0_10_66
*288 FILLER_0_10_78
*289 FILLER_0_10_90
*290 FILLER_0_11_109
*291 FILLER_0_11_113
*292 FILLER_0_11_120
*293 FILLER_0_11_132
*294 FILLER_0_11_138
*295 FILLER_0_11_142
*296 FILLER_0_11_15
*297 FILLER_0_11_154
*298 FILLER_0_11_166
*299 FILLER_0_11_169
*300 FILLER_0_11_181
*301 FILLER_0_11_190
*302 FILLER_0_11_202
*303 FILLER_0_11_214
*304 FILLER_0_11_223
*305 FILLER_0_11_225
*306 FILLER_0_11_27
*307 FILLER_0_11_3
*308 FILLER_0_11_39
*309 FILLER_0_11_51
*310 FILLER_0_11_55
*311 FILLER_0_11_57
*312 FILLER_0_11_75
*313 FILLER_0_11_83
*314 FILLER_0_12_109
*315 FILLER_0_12_124
*316 FILLER_0_12_128
*317 FILLER_0_12_141
*318 FILLER_0_12_153
*319 FILLER_0_12_165
*320 FILLER_0_12_177
*321 FILLER_0_12_18
*322 FILLER_0_12_189
*323 FILLER_0_12_195
*324 FILLER_0_12_197
*325 FILLER_0_12_209
*326 FILLER_0_12_221
*327 FILLER_0_12_26
*328 FILLER_0_12_29
*329 FILLER_0_12_41
*330 FILLER_0_12_49
*331 FILLER_0_12_53
*332 FILLER_0_12_6
*333 FILLER_0_12_60
*334 FILLER_0_12_72
*335 FILLER_0_12_85
*336 FILLER_0_12_97
*337 FILLER_0_13_109
*338 FILLER_0_13_113
*339 FILLER_0_13_125
*340 FILLER_0_13_137
*341 FILLER_0_13_141
*342 FILLER_0_13_145
*343 FILLER_0_13_149
*344 FILLER_0_13_15
*345 FILLER_0_13_161
*346 FILLER_0_13_167
*347 FILLER_0_13_169
*348 FILLER_0_13_181
*349 FILLER_0_13_193
*350 FILLER_0_13_205
*351 FILLER_0_13_21
*352 FILLER_0_13_217
*353 FILLER_0_13_222
*354 FILLER_0_13_225
*355 FILLER_0_13_229
*356 FILLER_0_13_28
*357 FILLER_0_13_3
*358 FILLER_0_13_40
*359 FILLER_0_13_52
*360 FILLER_0_13_57
*361 FILLER_0_13_79
*362 FILLER_0_13_85
*363 FILLER_0_13_97
*364 FILLER_0_14_109
*365 FILLER_0_14_121
*366 FILLER_0_14_129
*367 FILLER_0_14_136
*368 FILLER_0_14_15
*369 FILLER_0_14_162
*370 FILLER_0_14_166
*371 FILLER_0_14_171
*372 FILLER_0_14_183
*373 FILLER_0_14_195
*374 FILLER_0_14_197
*375 FILLER_0_14_209
*376 FILLER_0_14_221
*377 FILLER_0_14_27
*378 FILLER_0_14_29
*379 FILLER_0_14_3
*380 FILLER_0_14_41
*381 FILLER_0_14_53
*382 FILLER_0_14_59
*383 FILLER_0_14_81
*384 FILLER_0_14_85
*385 FILLER_0_14_97
*386 FILLER_0_15_111
*387 FILLER_0_15_113
*388 FILLER_0_15_125
*389 FILLER_0_15_137
*390 FILLER_0_15_149
*391 FILLER_0_15_15
*392 FILLER_0_15_161
*393 FILLER_0_15_167
*394 FILLER_0_15_169
*395 FILLER_0_15_181
*396 FILLER_0_15_19
*397 FILLER_0_15_193
*398 FILLER_0_15_205
*399 FILLER_0_15_217
*400 FILLER_0_15_223
*401 FILLER_0_15_225
*402 FILLER_0_15_229
*403 FILLER_0_15_23
*404 FILLER_0_15_3
*405 FILLER_0_15_35
*406 FILLER_0_15_47
*407 FILLER_0_15_55
*408 FILLER_0_15_57
*409 FILLER_0_15_61
*410 FILLER_0_15_85
*411 FILLER_0_15_97
*412 FILLER_0_16_113
*413 FILLER_0_16_125
*414 FILLER_0_16_13
*415 FILLER_0_16_139
*416 FILLER_0_16_141
*417 FILLER_0_16_153
*418 FILLER_0_16_161
*419 FILLER_0_16_167
*420 FILLER_0_16_179
*421 FILLER_0_16_191
*422 FILLER_0_16_195
*423 FILLER_0_16_197
*424 FILLER_0_16_209
*425 FILLER_0_16_25
*426 FILLER_0_16_29
*427 FILLER_0_16_3
*428 FILLER_0_16_40
*429 FILLER_0_16_48
*430 FILLER_0_16_70
*431 FILLER_0_16_78
*432 FILLER_0_16_85
*433 FILLER_0_16_9
*434 FILLER_0_17_101
*435 FILLER_0_17_108
*436 FILLER_0_17_118
*437 FILLER_0_17_130
*438 FILLER_0_17_142
*439 FILLER_0_17_15
*440 FILLER_0_17_154
*441 FILLER_0_17_159
*442 FILLER_0_17_167
*443 FILLER_0_17_169
*444 FILLER_0_17_181
*445 FILLER_0_17_193
*446 FILLER_0_17_205
*447 FILLER_0_17_217
*448 FILLER_0_17_223
*449 FILLER_0_17_225
*450 FILLER_0_17_229
*451 FILLER_0_17_27
*452 FILLER_0_17_3
*453 FILLER_0_17_39
*454 FILLER_0_17_51
*455 FILLER_0_17_55
*456 FILLER_0_17_57
*457 FILLER_0_17_69
*458 FILLER_0_17_81
*459 FILLER_0_17_93
*460 FILLER_0_18_105
*461 FILLER_0_18_128
*462 FILLER_0_18_141
*463 FILLER_0_18_15
*464 FILLER_0_18_156
*465 FILLER_0_18_169
*466 FILLER_0_18_181
*467 FILLER_0_18_193
*468 FILLER_0_18_197
*469 FILLER_0_18_209
*470 FILLER_0_18_221
*471 FILLER_0_18_27
*472 FILLER_0_18_29
*473 FILLER_0_18_3
*474 FILLER_0_18_41
*475 FILLER_0_18_53
*476 FILLER_0_18_85
*477 FILLER_0_18_97
*478 FILLER_0_19_104
*479 FILLER_0_19_113
*480 FILLER_0_19_125
*481 FILLER_0_19_133
*482 FILLER_0_19_158
*483 FILLER_0_19_16
*484 FILLER_0_19_166
*485 FILLER_0_19_169
*486 FILLER_0_19_181
*487 FILLER_0_19_193
*488 FILLER_0_19_205
*489 FILLER_0_19_217
*490 FILLER_0_19_223
*491 FILLER_0_19_225
*492 FILLER_0_19_24
*493 FILLER_0_19_3
*494 FILLER_0_19_31
*495 FILLER_0_19_43
*496 FILLER_0_19_55
*497 FILLER_0_19_80
*498 FILLER_0_19_9
*499 FILLER_0_19_92
*500 FILLER_0_1_10
*501 FILLER_0_1_103
*502 FILLER_0_1_108
*503 FILLER_0_1_113
*504 FILLER_0_1_122
*505 FILLER_0_1_134
*506 FILLER_0_1_146
*507 FILLER_0_1_154
*508 FILLER_0_1_160
*509 FILLER_0_1_169
*510 FILLER_0_1_181
*511 FILLER_0_1_185
*512 FILLER_0_1_193
*513 FILLER_0_1_201
*514 FILLER_0_1_213
*515 FILLER_0_1_22
*516 FILLER_0_1_221
*517 FILLER_0_1_225
*518 FILLER_0_1_3
*519 FILLER_0_1_49
*520 FILLER_0_1_55
*521 FILLER_0_1_57
*522 FILLER_0_1_65
*523 FILLER_0_1_91
*524 FILLER_0_20_113
*525 FILLER_0_20_125
*526 FILLER_0_20_137
*527 FILLER_0_20_141
*528 FILLER_0_20_145
*529 FILLER_0_20_15
*530 FILLER_0_20_155
*531 FILLER_0_20_162
*532 FILLER_0_20_174
*533 FILLER_0_20_186
*534 FILLER_0_20_194
*535 FILLER_0_20_197
*536 FILLER_0_20_205
*537 FILLER_0_20_27
*538 FILLER_0_20_29
*539 FILLER_0_20_3
*540 FILLER_0_20_41
*541 FILLER_0_20_53
*542 FILLER_0_20_65
*543 FILLER_0_20_73
*544 FILLER_0_20_78
*545 FILLER_0_20_85
*546 FILLER_0_20_91
*547 FILLER_0_21_102
*548 FILLER_0_21_110
*549 FILLER_0_21_136
*550 FILLER_0_21_144
*551 FILLER_0_21_15
*552 FILLER_0_21_169
*553 FILLER_0_21_173
*554 FILLER_0_21_180
*555 FILLER_0_21_192
*556 FILLER_0_21_204
*557 FILLER_0_21_216
*558 FILLER_0_21_225
*559 FILLER_0_21_23
*560 FILLER_0_21_3
*561 FILLER_0_21_30
*562 FILLER_0_21_42
*563 FILLER_0_21_48
*564 FILLER_0_21_78
*565 FILLER_0_21_90
*566 FILLER_0_22_104
*567 FILLER_0_22_116
*568 FILLER_0_22_128
*569 FILLER_0_22_135
*570 FILLER_0_22_139
*571 FILLER_0_22_141
*572 FILLER_0_22_15
*573 FILLER_0_22_153
*574 FILLER_0_22_165
*575 FILLER_0_22_177
*576 FILLER_0_22_189
*577 FILLER_0_22_195
*578 FILLER_0_22_197
*579 FILLER_0_22_209
*580 FILLER_0_22_221
*581 FILLER_0_22_27
*582 FILLER_0_22_29
*583 FILLER_0_22_3
*584 FILLER_0_22_41
*585 FILLER_0_22_46
*586 FILLER_0_22_80
*587 FILLER_0_22_85
*588 FILLER_0_22_97
*589 FILLER_0_23_101
*590 FILLER_0_23_107
*591 FILLER_0_23_111
*592 FILLER_0_23_113
*593 FILLER_0_23_125
*594 FILLER_0_23_13
*595 FILLER_0_23_137
*596 FILLER_0_23_149
*597 FILLER_0_23_157
*598 FILLER_0_23_162
*599 FILLER_0_23_169
*600 FILLER_0_23_181
*601 FILLER_0_23_190
*602 FILLER_0_23_21
*603 FILLER_0_23_215
*604 FILLER_0_23_223
*605 FILLER_0_23_225
*606 FILLER_0_23_229
*607 FILLER_0_23_3
*608 FILLER_0_23_50
*609 FILLER_0_23_60
*610 FILLER_0_23_72
*611 FILLER_0_23_9
*612 FILLER_0_24_106
*613 FILLER_0_24_112
*614 FILLER_0_24_117
*615 FILLER_0_24_129
*616 FILLER_0_24_141
*617 FILLER_0_24_153
*618 FILLER_0_24_165
*619 FILLER_0_24_177
*620 FILLER_0_24_189
*621 FILLER_0_24_195
*622 FILLER_0_24_197
*623 FILLER_0_24_209
*624 FILLER_0_24_220
*625 FILLER_0_24_232
*626 FILLER_0_24_26
*627 FILLER_0_24_29
*628 FILLER_0_24_33
*629 FILLER_0_24_45
*630 FILLER_0_24_57
*631 FILLER_0_24_69
*632 FILLER_0_24_81
*633 FILLER_0_24_85
*634 FILLER_0_24_98
*635 FILLER_0_25_111
*636 FILLER_0_25_113
*637 FILLER_0_25_125
*638 FILLER_0_25_149
*639 FILLER_0_25_15
*640 FILLER_0_25_153
*641 FILLER_0_25_164
*642 FILLER_0_25_169
*643 FILLER_0_25_181
*644 FILLER_0_25_193
*645 FILLER_0_25_205
*646 FILLER_0_25_213
*647 FILLER_0_25_218
*648 FILLER_0_25_225
*649 FILLER_0_25_229
*650 FILLER_0_25_27
*651 FILLER_0_25_3
*652 FILLER_0_25_39
*653 FILLER_0_25_51
*654 FILLER_0_25_55
*655 FILLER_0_25_57
*656 FILLER_0_25_63
*657 FILLER_0_25_75
*658 FILLER_0_25_87
*659 FILLER_0_25_99
*660 FILLER_0_26_104
*661 FILLER_0_26_116
*662 FILLER_0_26_122
*663 FILLER_0_26_132
*664 FILLER_0_26_144
*665 FILLER_0_26_15
*666 FILLER_0_26_172
*667 FILLER_0_26_184
*668 FILLER_0_26_197
*669 FILLER_0_26_209
*670 FILLER_0_26_221
*671 FILLER_0_26_27
*672 FILLER_0_26_29
*673 FILLER_0_26_3
*674 FILLER_0_26_41
*675 FILLER_0_26_53
*676 FILLER_0_26_65
*677 FILLER_0_26_77
*678 FILLER_0_26_83
*679 FILLER_0_26_85
*680 FILLER_0_26_92
*681 FILLER_0_27_101
*682 FILLER_0_27_11
*683 FILLER_0_27_111
*684 FILLER_0_27_118
*685 FILLER_0_27_162
*686 FILLER_0_27_172
*687 FILLER_0_27_176
*688 FILLER_0_27_180
*689 FILLER_0_27_192
*690 FILLER_0_27_204
*691 FILLER_0_27_216
*692 FILLER_0_27_23
*693 FILLER_0_27_232
*694 FILLER_0_27_3
*695 FILLER_0_27_35
*696 FILLER_0_27_39
*697 FILLER_0_27_48
*698 FILLER_0_27_57
*699 FILLER_0_27_69
*700 FILLER_0_27_81
*701 FILLER_0_27_93
*702 FILLER_0_28_103
*703 FILLER_0_28_130
*704 FILLER_0_28_134
*705 FILLER_0_28_141
*706 FILLER_0_28_15
*707 FILLER_0_28_153
*708 FILLER_0_28_165
*709 FILLER_0_28_177
*710 FILLER_0_28_189
*711 FILLER_0_28_195
*712 FILLER_0_28_197
*713 FILLER_0_28_209
*714 FILLER_0_28_221
*715 FILLER_0_28_229
*716 FILLER_0_28_27
*717 FILLER_0_28_29
*718 FILLER_0_28_3
*719 FILLER_0_28_41
*720 FILLER_0_28_53
*721 FILLER_0_28_65
*722 FILLER_0_28_77
*723 FILLER_0_28_83
*724 FILLER_0_28_85
*725 FILLER_0_28_97
*726 FILLER_0_29_111
*727 FILLER_0_29_113
*728 FILLER_0_29_125
*729 FILLER_0_29_137
*730 FILLER_0_29_14
*731 FILLER_0_29_149
*732 FILLER_0_29_161
*733 FILLER_0_29_167
*734 FILLER_0_29_169
*735 FILLER_0_29_181
*736 FILLER_0_29_196
*737 FILLER_0_29_208
*738 FILLER_0_29_220
*739 FILLER_0_29_225
*740 FILLER_0_29_26
*741 FILLER_0_29_32
*742 FILLER_0_29_53
*743 FILLER_0_29_57
*744 FILLER_0_29_61
*745 FILLER_0_29_65
*746 FILLER_0_29_75
*747 FILLER_0_29_87
*748 FILLER_0_29_99
*749 FILLER_0_2_101
*750 FILLER_0_2_113
*751 FILLER_0_2_125
*752 FILLER_0_2_137
*753 FILLER_0_2_141
*754 FILLER_0_2_149
*755 FILLER_0_2_161
*756 FILLER_0_2_17
*757 FILLER_0_2_173
*758 FILLER_0_2_185
*759 FILLER_0_2_193
*760 FILLER_0_2_197
*761 FILLER_0_2_209
*762 FILLER_0_2_221
*763 FILLER_0_2_24
*764 FILLER_0_2_29
*765 FILLER_0_2_3
*766 FILLER_0_2_33
*767 FILLER_0_2_37
*768 FILLER_0_2_48
*769 FILLER_0_2_56
*770 FILLER_0_2_83
*771 FILLER_0_2_89
*772 FILLER_0_30_10
*773 FILLER_0_30_105
*774 FILLER_0_30_112
*775 FILLER_0_30_124
*776 FILLER_0_30_136
*777 FILLER_0_30_141
*778 FILLER_0_30_153
*779 FILLER_0_30_165
*780 FILLER_0_30_177
*781 FILLER_0_30_189
*782 FILLER_0_30_195
*783 FILLER_0_30_197
*784 FILLER_0_30_208
*785 FILLER_0_30_212
*786 FILLER_0_30_219
*787 FILLER_0_30_22
*788 FILLER_0_30_227
*789 FILLER_0_30_3
*790 FILLER_0_30_52
*791 FILLER_0_30_58
*792 FILLER_0_30_79
*793 FILLER_0_30_83
*794 FILLER_0_30_85
*795 FILLER_0_30_97
*796 FILLER_0_31_107
*797 FILLER_0_31_111
*798 FILLER_0_31_113
*799 FILLER_0_31_128
*800 FILLER_0_31_137
*801 FILLER_0_31_149
*802 FILLER_0_31_15
*803 FILLER_0_31_157
*804 FILLER_0_31_167
*805 FILLER_0_31_169
*806 FILLER_0_31_181
*807 FILLER_0_31_189
*808 FILLER_0_31_201
*809 FILLER_0_31_213
*810 FILLER_0_31_221
*811 FILLER_0_31_225
*812 FILLER_0_31_27
*813 FILLER_0_31_3
*814 FILLER_0_31_47
*815 FILLER_0_31_55
*816 FILLER_0_31_57
*817 FILLER_0_31_65
*818 FILLER_0_31_71
*819 FILLER_0_31_83
*820 FILLER_0_31_95
*821 FILLER_0_32_109
*822 FILLER_0_32_133
*823 FILLER_0_32_139
*824 FILLER_0_32_141
*825 FILLER_0_32_15
*826 FILLER_0_32_153
*827 FILLER_0_32_165
*828 FILLER_0_32_177
*829 FILLER_0_32_189
*830 FILLER_0_32_195
*831 FILLER_0_32_197
*832 FILLER_0_32_209
*833 FILLER_0_32_217
*834 FILLER_0_32_222
*835 FILLER_0_32_230
*836 FILLER_0_32_27
*837 FILLER_0_32_29
*838 FILLER_0_32_3
*839 FILLER_0_32_35
*840 FILLER_0_32_39
*841 FILLER_0_32_51
*842 FILLER_0_32_59
*843 FILLER_0_32_64
*844 FILLER_0_32_76
*845 FILLER_0_32_85
*846 FILLER_0_32_97
*847 FILLER_0_33_104
*848 FILLER_0_33_113
*849 FILLER_0_33_128
*850 FILLER_0_33_140
*851 FILLER_0_33_15
*852 FILLER_0_33_152
*853 FILLER_0_33_164
*854 FILLER_0_33_172
*855 FILLER_0_33_184
*856 FILLER_0_33_196
*857 FILLER_0_33_208
*858 FILLER_0_33_220
*859 FILLER_0_33_225
*860 FILLER_0_33_229
*861 FILLER_0_33_27
*862 FILLER_0_33_3
*863 FILLER_0_33_39
*864 FILLER_0_33_51
*865 FILLER_0_33_55
*866 FILLER_0_33_57
*867 FILLER_0_33_69
*868 FILLER_0_33_81
*869 FILLER_0_33_93
*870 FILLER_0_34_106
*871 FILLER_0_34_110
*872 FILLER_0_34_138
*873 FILLER_0_34_141
*874 FILLER_0_34_15
*875 FILLER_0_34_153
*876 FILLER_0_34_165
*877 FILLER_0_34_177
*878 FILLER_0_34_189
*879 FILLER_0_34_195
*880 FILLER_0_34_202
*881 FILLER_0_34_214
*882 FILLER_0_34_226
*883 FILLER_0_34_232
*884 FILLER_0_34_27
*885 FILLER_0_34_29
*886 FILLER_0_34_3
*887 FILLER_0_34_41
*888 FILLER_0_34_49
*889 FILLER_0_34_55
*890 FILLER_0_34_67
*891 FILLER_0_34_80
*892 FILLER_0_35_109
*893 FILLER_0_35_11
*894 FILLER_0_35_113
*895 FILLER_0_35_125
*896 FILLER_0_35_137
*897 FILLER_0_35_141
*898 FILLER_0_35_153
*899 FILLER_0_35_165
*900 FILLER_0_35_169
*901 FILLER_0_35_181
*902 FILLER_0_35_193
*903 FILLER_0_35_197
*904 FILLER_0_35_209
*905 FILLER_0_35_221
*906 FILLER_0_35_225
*907 FILLER_0_35_229
*908 FILLER_0_35_23
*909 FILLER_0_35_27
*910 FILLER_0_35_29
*911 FILLER_0_35_3
*912 FILLER_0_35_41
*913 FILLER_0_35_53
*914 FILLER_0_35_57
*915 FILLER_0_35_69
*916 FILLER_0_35_73
*917 FILLER_0_35_77
*918 FILLER_0_35_83
*919 FILLER_0_35_85
*920 FILLER_0_35_97
*921 FILLER_0_3_105
*922 FILLER_0_3_111
*923 FILLER_0_3_119
*924 FILLER_0_3_131
*925 FILLER_0_3_139
*926 FILLER_0_3_144
*927 FILLER_0_3_15
*928 FILLER_0_3_159
*929 FILLER_0_3_167
*930 FILLER_0_3_169
*931 FILLER_0_3_181
*932 FILLER_0_3_193
*933 FILLER_0_3_208
*934 FILLER_0_3_217
*935 FILLER_0_3_223
*936 FILLER_0_3_225
*937 FILLER_0_3_229
*938 FILLER_0_3_3
*939 FILLER_0_3_44
*940 FILLER_0_3_57
*941 FILLER_0_3_69
*942 FILLER_0_3_81
*943 FILLER_0_3_93
*944 FILLER_0_4_109
*945 FILLER_0_4_11
*946 FILLER_0_4_121
*947 FILLER_0_4_133
*948 FILLER_0_4_139
*949 FILLER_0_4_141
*950 FILLER_0_4_153
*951 FILLER_0_4_165
*952 FILLER_0_4_177
*953 FILLER_0_4_189
*954 FILLER_0_4_195
*955 FILLER_0_4_197
*956 FILLER_0_4_209
*957 FILLER_0_4_217
*958 FILLER_0_4_22
*959 FILLER_0_4_223
*960 FILLER_0_4_231
*961 FILLER_0_4_3
*962 FILLER_0_4_36
*963 FILLER_0_4_40
*964 FILLER_0_4_45
*965 FILLER_0_4_57
*966 FILLER_0_4_69
*967 FILLER_0_4_7
*968 FILLER_0_4_81
*969 FILLER_0_4_85
*970 FILLER_0_4_93
*971 FILLER_0_4_97
*972 FILLER_0_5_110
*973 FILLER_0_5_113
*974 FILLER_0_5_125
*975 FILLER_0_5_137
*976 FILLER_0_5_149
*977 FILLER_0_5_15
*978 FILLER_0_5_161
*979 FILLER_0_5_167
*980 FILLER_0_5_169
*981 FILLER_0_5_181
*982 FILLER_0_5_189
*983 FILLER_0_5_196
*984 FILLER_0_5_208
*985 FILLER_0_5_220
*986 FILLER_0_5_225
*987 FILLER_0_5_229
*988 FILLER_0_5_27
*989 FILLER_0_5_3
*990 FILLER_0_5_39
*991 FILLER_0_5_51
*992 FILLER_0_5_55
*993 FILLER_0_5_62
*994 FILLER_0_5_74
*995 FILLER_0_5_86
*996 FILLER_0_5_98
*997 FILLER_0_6_108
*998 FILLER_0_6_120
*999 FILLER_0_6_132
*1000 FILLER_0_6_14
*1001 FILLER_0_6_141
*1002 FILLER_0_6_153
*1003 FILLER_0_6_165
*1004 FILLER_0_6_177
*1005 FILLER_0_6_189
*1006 FILLER_0_6_195
*1007 FILLER_0_6_197
*1008 FILLER_0_6_209
*1009 FILLER_0_6_218
*1010 FILLER_0_6_230
*1011 FILLER_0_6_26
*1012 FILLER_0_6_3
*1013 FILLER_0_6_32
*1014 FILLER_0_6_43
*1015 FILLER_0_6_55
*1016 FILLER_0_6_67
*1017 FILLER_0_6_79
*1018 FILLER_0_6_83
*1019 FILLER_0_6_85
*1020 FILLER_0_6_92
*1021 FILLER_0_7_105
*1022 FILLER_0_7_111
*1023 FILLER_0_7_113
*1024 FILLER_0_7_125
*1025 FILLER_0_7_137
*1026 FILLER_0_7_145
*1027 FILLER_0_7_149
*1028 FILLER_0_7_15
*1029 FILLER_0_7_161
*1030 FILLER_0_7_167
*1031 FILLER_0_7_173
*1032 FILLER_0_7_185
*1033 FILLER_0_7_197
*1034 FILLER_0_7_209
*1035 FILLER_0_7_221
*1036 FILLER_0_7_225
*1037 FILLER_0_7_24
*1038 FILLER_0_7_3
*1039 FILLER_0_7_36
*1040 FILLER_0_7_48
*1041 FILLER_0_7_57
*1042 FILLER_0_7_63
*1043 FILLER_0_7_69
*1044 FILLER_0_7_81
*1045 FILLER_0_7_93
*1046 FILLER_0_8_106
*1047 FILLER_0_8_118
*1048 FILLER_0_8_130
*1049 FILLER_0_8_138
*1050 FILLER_0_8_15
*1051 FILLER_0_8_157
*1052 FILLER_0_8_169
*1053 FILLER_0_8_181
*1054 FILLER_0_8_189
*1055 FILLER_0_8_195
*1056 FILLER_0_8_197
*1057 FILLER_0_8_205
*1058 FILLER_0_8_213
*1059 FILLER_0_8_221
*1060 FILLER_0_8_225
*1061 FILLER_0_8_229
*1062 FILLER_0_8_27
*1063 FILLER_0_8_29
*1064 FILLER_0_8_3
*1065 FILLER_0_8_41
*1066 FILLER_0_8_53
*1067 FILLER_0_8_65
*1068 FILLER_0_8_77
*1069 FILLER_0_8_83
*1070 FILLER_0_8_85
*1071 FILLER_0_8_89
*1072 FILLER_0_9_111
*1073 FILLER_0_9_113
*1074 FILLER_0_9_125
*1075 FILLER_0_9_129
*1076 FILLER_0_9_141
*1077 FILLER_0_9_15
*1078 FILLER_0_9_153
*1079 FILLER_0_9_167
*1080 FILLER_0_9_169
*1081 FILLER_0_9_181
*1082 FILLER_0_9_193
*1083 FILLER_0_9_205
*1084 FILLER_0_9_217
*1085 FILLER_0_9_225
*1086 FILLER_0_9_229
*1087 FILLER_0_9_3
*1088 FILLER_0_9_41
*1089 FILLER_0_9_53
*1090 FILLER_0_9_57
*1091 FILLER_0_9_63
*1092 FILLER_0_9_75
*1093 FILLER_0_9_87
*1094 FILLER_0_9_99
*1095 PHY_EDGE_ROW_0_Left_36
*1096 PHY_EDGE_ROW_0_Right_0
*1097 PHY_EDGE_ROW_10_Left_46
*1098 PHY_EDGE_ROW_10_Right_10
*1099 PHY_EDGE_ROW_11_Left_47
*1100 PHY_EDGE_ROW_11_Right_11
*1101 PHY_EDGE_ROW_12_Left_48
*1102 PHY_EDGE_ROW_12_Right_12
*1103 PHY_EDGE_ROW_13_Left_49
*1104 PHY_EDGE_ROW_13_Right_13
*1105 PHY_EDGE_ROW_14_Left_50
*1106 PHY_EDGE_ROW_14_Right_14
*1107 PHY_EDGE_ROW_15_Left_51
*1108 PHY_EDGE_ROW_15_Right_15
*1109 PHY_EDGE_ROW_16_Left_52
*1110 PHY_EDGE_ROW_16_Right_16
*1111 PHY_EDGE_ROW_17_Left_53
*1112 PHY_EDGE_ROW_17_Right_17
*1113 PHY_EDGE_ROW_18_Left_54
*1114 PHY_EDGE_ROW_18_Right_18
*1115 PHY_EDGE_ROW_19_Left_55
*1116 PHY_EDGE_ROW_19_Right_19
*1117 PHY_EDGE_ROW_1_Left_37
*1118 PHY_EDGE_ROW_1_Right_1
*1119 PHY_EDGE_ROW_20_Left_56
*1120 PHY_EDGE_ROW_20_Right_20
*1121 PHY_EDGE_ROW_21_Left_57
*1122 PHY_EDGE_ROW_21_Right_21
*1123 PHY_EDGE_ROW_22_Left_58
*1124 PHY_EDGE_ROW_22_Right_22
*1125 PHY_EDGE_ROW_23_Left_59
*1126 PHY_EDGE_ROW_23_Right_23
*1127 PHY_EDGE_ROW_24_Left_60
*1128 PHY_EDGE_ROW_24_Right_24
*1129 PHY_EDGE_ROW_25_Left_61
*1130 PHY_EDGE_ROW_25_Right_25
*1131 PHY_EDGE_ROW_26_Left_62
*1132 PHY_EDGE_ROW_26_Right_26
*1133 PHY_EDGE_ROW_27_Left_63
*1134 PHY_EDGE_ROW_27_Right_27
*1135 PHY_EDGE_ROW_28_Left_64
*1136 PHY_EDGE_ROW_28_Right_28
*1137 PHY_EDGE_ROW_29_Left_65
*1138 PHY_EDGE_ROW_29_Right_29
*1139 PHY_EDGE_ROW_2_Left_38
*1140 PHY_EDGE_ROW_2_Right_2
*1141 PHY_EDGE_ROW_30_Left_66
*1142 PHY_EDGE_ROW_30_Right_30
*1143 PHY_EDGE_ROW_31_Left_67
*1144 PHY_EDGE_ROW_31_Right_31
*1145 PHY_EDGE_ROW_32_Left_68
*1146 PHY_EDGE_ROW_32_Right_32
*1147 PHY_EDGE_ROW_33_Left_69
*1148 PHY_EDGE_ROW_33_Right_33
*1149 PHY_EDGE_ROW_34_Left_70
*1150 PHY_EDGE_ROW_34_Right_34
*1151 PHY_EDGE_ROW_35_Left_71
*1152 PHY_EDGE_ROW_35_Right_35
*1153 PHY_EDGE_ROW_3_Left_39
*1154 PHY_EDGE_ROW_3_Right_3
*1155 PHY_EDGE_ROW_4_Left_40
*1156 PHY_EDGE_ROW_4_Right_4
*1157 PHY_EDGE_ROW_5_Left_41
*1158 PHY_EDGE_ROW_5_Right_5
*1159 PHY_EDGE_ROW_6_Left_42
*1160 PHY_EDGE_ROW_6_Right_6
*1161 PHY_EDGE_ROW_7_Left_43
*1162 PHY_EDGE_ROW_7_Right_7
*1163 PHY_EDGE_ROW_8_Left_44
*1164 PHY_EDGE_ROW_8_Right_8
*1165 PHY_EDGE_ROW_9_Left_45
*1166 PHY_EDGE_ROW_9_Right_9
*1167 TAP_TAPCELL_ROW_0_72
*1168 TAP_TAPCELL_ROW_0_73
*1169 TAP_TAPCELL_ROW_0_74
*1170 TAP_TAPCELL_ROW_0_75
*1171 TAP_TAPCELL_ROW_0_76
*1172 TAP_TAPCELL_ROW_0_77
*1173 TAP_TAPCELL_ROW_0_78
*1174 TAP_TAPCELL_ROW_0_79
*1175 TAP_TAPCELL_ROW_10_116
*1176 TAP_TAPCELL_ROW_10_117
*1177 TAP_TAPCELL_ROW_10_118
*1178 TAP_TAPCELL_ROW_10_119
*1179 TAP_TAPCELL_ROW_11_120
*1180 TAP_TAPCELL_ROW_11_121
*1181 TAP_TAPCELL_ROW_11_122
*1182 TAP_TAPCELL_ROW_11_123
*1183 TAP_TAPCELL_ROW_12_124
*1184 TAP_TAPCELL_ROW_12_125
*1185 TAP_TAPCELL_ROW_12_126
*1186 TAP_TAPCELL_ROW_12_127
*1187 TAP_TAPCELL_ROW_13_128
*1188 TAP_TAPCELL_ROW_13_129
*1189 TAP_TAPCELL_ROW_13_130
*1190 TAP_TAPCELL_ROW_13_131
*1191 TAP_TAPCELL_ROW_14_132
*1192 TAP_TAPCELL_ROW_14_133
*1193 TAP_TAPCELL_ROW_14_134
*1194 TAP_TAPCELL_ROW_14_135
*1195 TAP_TAPCELL_ROW_15_136
*1196 TAP_TAPCELL_ROW_15_137
*1197 TAP_TAPCELL_ROW_15_138
*1198 TAP_TAPCELL_ROW_15_139
*1199 TAP_TAPCELL_ROW_16_140
*1200 TAP_TAPCELL_ROW_16_141
*1201 TAP_TAPCELL_ROW_16_142
*1202 TAP_TAPCELL_ROW_16_143
*1203 TAP_TAPCELL_ROW_17_144
*1204 TAP_TAPCELL_ROW_17_145
*1205 TAP_TAPCELL_ROW_17_146
*1206 TAP_TAPCELL_ROW_17_147
*1207 TAP_TAPCELL_ROW_18_148
*1208 TAP_TAPCELL_ROW_18_149
*1209 TAP_TAPCELL_ROW_18_150
*1210 TAP_TAPCELL_ROW_18_151
*1211 TAP_TAPCELL_ROW_19_152
*1212 TAP_TAPCELL_ROW_19_153
*1213 TAP_TAPCELL_ROW_19_154
*1214 TAP_TAPCELL_ROW_19_155
*1215 TAP_TAPCELL_ROW_1_80
*1216 TAP_TAPCELL_ROW_1_81
*1217 TAP_TAPCELL_ROW_1_82
*1218 TAP_TAPCELL_ROW_1_83
*1219 TAP_TAPCELL_ROW_20_156
*1220 TAP_TAPCELL_ROW_20_157
*1221 TAP_TAPCELL_ROW_20_158
*1222 TAP_TAPCELL_ROW_20_159
*1223 TAP_TAPCELL_ROW_21_160
*1224 TAP_TAPCELL_ROW_21_161
*1225 TAP_TAPCELL_ROW_21_162
*1226 TAP_TAPCELL_ROW_21_163
*1227 TAP_TAPCELL_ROW_22_164
*1228 TAP_TAPCELL_ROW_22_165
*1229 TAP_TAPCELL_ROW_22_166
*1230 TAP_TAPCELL_ROW_22_167
*1231 TAP_TAPCELL_ROW_23_168
*1232 TAP_TAPCELL_ROW_23_169
*1233 TAP_TAPCELL_ROW_23_170
*1234 TAP_TAPCELL_ROW_23_171
*1235 TAP_TAPCELL_ROW_24_172
*1236 TAP_TAPCELL_ROW_24_173
*1237 TAP_TAPCELL_ROW_24_174
*1238 TAP_TAPCELL_ROW_24_175
*1239 TAP_TAPCELL_ROW_25_176
*1240 TAP_TAPCELL_ROW_25_177
*1241 TAP_TAPCELL_ROW_25_178
*1242 TAP_TAPCELL_ROW_25_179
*1243 TAP_TAPCELL_ROW_26_180
*1244 TAP_TAPCELL_ROW_26_181
*1245 TAP_TAPCELL_ROW_26_182
*1246 TAP_TAPCELL_ROW_26_183
*1247 TAP_TAPCELL_ROW_27_184
*1248 TAP_TAPCELL_ROW_27_185
*1249 TAP_TAPCELL_ROW_27_186
*1250 TAP_TAPCELL_ROW_27_187
*1251 TAP_TAPCELL_ROW_28_188
*1252 TAP_TAPCELL_ROW_28_189
*1253 TAP_TAPCELL_ROW_28_190
*1254 TAP_TAPCELL_ROW_28_191
*1255 TAP_TAPCELL_ROW_29_192
*1256 TAP_TAPCELL_ROW_29_193
*1257 TAP_TAPCELL_ROW_29_194
*1258 TAP_TAPCELL_ROW_29_195
*1259 TAP_TAPCELL_ROW_2_84
*1260 TAP_TAPCELL_ROW_2_85
*1261 TAP_TAPCELL_ROW_2_86
*1262 TAP_TAPCELL_ROW_2_87
*1263 TAP_TAPCELL_ROW_30_196
*1264 TAP_TAPCELL_ROW_30_197
*1265 TAP_TAPCELL_ROW_30_198
*1266 TAP_TAPCELL_ROW_30_199
*1267 TAP_TAPCELL_ROW_31_200
*1268 TAP_TAPCELL_ROW_31_201
*1269 TAP_TAPCELL_ROW_31_202
*1270 TAP_TAPCELL_ROW_31_203
*1271 TAP_TAPCELL_ROW_32_204
*1272 TAP_TAPCELL_ROW_32_205
*1273 TAP_TAPCELL_ROW_32_206
*1274 TAP_TAPCELL_ROW_32_207
*1275 TAP_TAPCELL_ROW_33_208
*1276 TAP_TAPCELL_ROW_33_209
*1277 TAP_TAPCELL_ROW_33_210
*1278 TAP_TAPCELL_ROW_33_211
*1279 TAP_TAPCELL_ROW_34_212
*1280 TAP_TAPCELL_ROW_34_213
*1281 TAP_TAPCELL_ROW_34_214
*1282 TAP_TAPCELL_ROW_34_215
*1283 TAP_TAPCELL_ROW_35_216
*1284 TAP_TAPCELL_ROW_35_217
*1285 TAP_TAPCELL_ROW_35_218
*1286 TAP_TAPCELL_ROW_35_219
*1287 TAP_TAPCELL_ROW_35_220
*1288 TAP_TAPCELL_ROW_35_221
*1289 TAP_TAPCELL_ROW_35_222
*1290 TAP_TAPCELL_ROW_35_223
*1291 TAP_TAPCELL_ROW_3_88
*1292 TAP_TAPCELL_ROW_3_89
*1293 TAP_TAPCELL_ROW_3_90
*1294 TAP_TAPCELL_ROW_3_91
*1295 TAP_TAPCELL_ROW_4_92
*1296 TAP_TAPCELL_ROW_4_93
*1297 TAP_TAPCELL_ROW_4_94
*1298 TAP_TAPCELL_ROW_4_95
*1299 TAP_TAPCELL_ROW_5_96
*1300 TAP_TAPCELL_ROW_5_97
*1301 TAP_TAPCELL_ROW_5_98
*1302 TAP_TAPCELL_ROW_5_99
*1303 TAP_TAPCELL_ROW_6_100
*1304 TAP_TAPCELL_ROW_6_101
*1305 TAP_TAPCELL_ROW_6_102
*1306 TAP_TAPCELL_ROW_6_103
*1307 TAP_TAPCELL_ROW_7_104
*1308 TAP_TAPCELL_ROW_7_105
*1309 TAP_TAPCELL_ROW_7_106
*1310 TAP_TAPCELL_ROW_7_107
*1311 TAP_TAPCELL_ROW_8_108
*1312 TAP_TAPCELL_ROW_8_109
*1313 TAP_TAPCELL_ROW_8_110
*1314 TAP_TAPCELL_ROW_8_111
*1315 TAP_TAPCELL_ROW_9_112
*1316 TAP_TAPCELL_ROW_9_113
*1317 TAP_TAPCELL_ROW_9_114
*1318 TAP_TAPCELL_ROW_9_115
*1319 ZeroToFiveCounter_10
*1320 ZeroToFiveCounter_11
*1321 ZeroToFiveCounter_12
*1322 ZeroToFiveCounter_13
*1323 ZeroToFiveCounter_14
*1324 ZeroToFiveCounter_15
*1325 ZeroToFiveCounter_16
*1326 ZeroToFiveCounter_9
*1327 _162_
*1328 _163_
*1329 _164_
*1330 _165_
*1331 _166_
*1332 _167_
*1333 _168_
*1334 _169_
*1335 _170_
*1336 _171_
*1337 _172_
*1338 _173_
*1339 _174_
*1340 _175_
*1341 _176_
*1342 _177_
*1343 _178_
*1344 _179_
*1345 _180_
*1346 _181_
*1347 _182_
*1348 _183_
*1349 _184_
*1350 _185_
*1351 _186_
*1352 _187_
*1353 _188_
*1354 _189_
*1355 _190_
*1356 _191_
*1357 _192_
*1358 _193_
*1359 _194_
*1360 _195_
*1361 _196_
*1362 _197_
*1363 _198_
*1364 _199_
*1365 _200_
*1366 _201_
*1367 _202_
*1368 _203_
*1369 _204_
*1370 _205_
*1371 _206_
*1372 _207_
*1373 _208_
*1374 _209_
*1375 _210_
*1376 _211_
*1377 _212_
*1378 _213_
*1379 _214_
*1380 _215_
*1381 _216_
*1382 _217_
*1383 _218_
*1384 _219_
*1385 _220_
*1386 _221_
*1387 _222_
*1388 _223_
*1389 _224_
*1390 _225_
*1391 _226_
*1392 _227_
*1393 _228_
*1394 _229_
*1395 _230_
*1396 _231_
*1397 _232_
*1398 _233_
*1399 _234_
*1400 _235_
*1401 _236_
*1402 _237_
*1403 _238_
*1404 _239_
*1405 _240_
*1406 _241_
*1407 _242_
*1408 _243_
*1409 _244_
*1410 _245_
*1411 _246_
*1412 _247_
*1413 _248_
*1414 _249_
*1415 _250_
*1416 _251_
*1417 _252_
*1418 _253_
*1419 _254_
*1420 _255_
*1421 _256_
*1422 _257_
*1423 _258_
*1424 _259_
*1425 _260_
*1426 _261_
*1427 _262_
*1428 _263_
*1429 _264_
*1430 _265_
*1431 _266_
*1432 _267_
*1433 _268_
*1434 _269_
*1435 _270_
*1436 _271_
*1437 _272_
*1438 _273_
*1439 _274_
*1440 _275_
*1441 _276_
*1442 _277_
*1443 _278_
*1444 _279_
*1445 _280_
*1446 _281_
*1447 _282_
*1448 _283_
*1449 _284_
*1450 _285_
*1451 _286_
*1452 _287_
*1453 _288_
*1454 _289_
*1455 _290_
*1456 _291_
*1457 _292_
*1458 _293_
*1459 _294_
*1460 _295_
*1461 _296_
*1462 _297_
*1463 _298_
*1464 _299_
*1465 _300_
*1466 _301_
*1467 _302_
*1468 _303_
*1469 _304_
*1470 _305_
*1471 _306_
*1472 _307_
*1473 _308_
*1474 _309_
*1475 _310_
*1476 _311_
*1477 _312_
*1478 _313_
*1479 _314_
*1480 _315_
*1481 _316_
*1482 _317_
*1483 _318_
*1484 _319_
*1485 _320_
*1486 _321_
*1487 _322_
*1488 _323_
*1489 _324_
*1490 _325_
*1491 _326_
*1492 _327_
*1493 _328_
*1494 _329_
*1495 _330_
*1496 _331_
*1497 _332_
*1498 _333_
*1499 _334_
*1500 _335_
*1501 _336_
*1502 _337_
*1503 _338_
*1504 _339_
*1505 _340_
*1506 _341_
*1507 _342_
*1508 _343_
*1509 _344_
*1510 _345_
*1511 _346_
*1512 _347_
*1513 _348_
*1514 _349_
*1515 _350_
*1516 _351_
*1517 _352_
*1518 _353_
*1519 _354_
*1520 _355_
*1521 _356_
*1522 _357_
*1523 _358_
*1524 _359_
*1525 _360_
*1526 _361_
*1527 _370_
*1528 clkbuf_0_clk
*1529 clkbuf_2_0__f_clk
*1530 clkbuf_2_1__f_clk
*1531 clkbuf_2_2__f_clk
*1532 clkbuf_2_3__f_clk
*1533 clkload0
*1534 clkload1
*1535 clkload2
*1536 input1
*1537 output2
*1538 output3
*1539 output4
*1540 output5
*1541 output6
*1542 output7
*1543 output8

*PORTS
an[0] O
an[1] O
an[2] O
an[3] O
an[4] O
an[5] O
an[6] O
an[7] O
clk I
rst I
seg[0] O
seg[1] O
seg[2] O
seg[3] O
seg[4] O
seg[5] O
seg[6] O

*D_NET *3 0.000685807
*CONN
*P an[0] O
*I *1319:HI O *D sky130_fd_sc_hd__conb_1
*CAP
1 an[0] 0.000342904
2 *1319:HI 0.000342904
3 an[0] an[1] 0
*RES
1 *1319:HI an[0] 18.73 
*END

*D_NET *4 0.000817083
*CONN
*P an[1] O
*I *1320:HI O *D sky130_fd_sc_hd__conb_1
*CAP
1 an[1] 0.000408542
2 *1320:HI 0.000408542
3 an[1] an[2] 0
4 an[0] an[1] 0
*RES
1 *1320:HI an[1] 19.9443 
*END

*D_NET *5 0.00058998
*CONN
*P an[2] O
*I *1321:HI O *D sky130_fd_sc_hd__conb_1
*CAP
1 an[2] 0.00029499
2 *1321:HI 0.00029499
3 an[2] an[3] 0
4 an[1] an[2] 0
*RES
1 *1321:HI an[2] 20.2797 
*END

*D_NET *6 0.000805546
*CONN
*P an[3] O
*I *1322:HI O *D sky130_fd_sc_hd__conb_1
*CAP
1 an[3] 0.000402773
2 *1322:HI 0.000402773
3 an[3] an[4] 0
4 an[2] an[3] 0
*RES
1 *1322:HI an[3] 19.3371 
*END

*D_NET *7 0.000692432
*CONN
*P an[4] O
*I *1323:HI O *D sky130_fd_sc_hd__conb_1
*CAP
1 an[4] 0.00034415
2 *1323:HI 0.00034415
3 an[4] an[5] 0
4 an[4] *218:96 4.13122e-06
5 an[3] an[4] 0
*RES
1 *1323:HI an[4] 18.73 
*END

*D_NET *8 0.000833462
*CONN
*P an[5] O
*I *1324:HI O *D sky130_fd_sc_hd__conb_1
*CAP
1 an[5] 0.000416731
2 *1324:HI 0.000416731
3 an[5] an[6] 0
4 an[4] an[5] 0
*RES
1 *1324:HI an[5] 19.9443 
*END

*D_NET *9 0.000601764
*CONN
*P an[6] O
*I *1325:HI O *D sky130_fd_sc_hd__conb_1
*CAP
1 an[6] 0.000300882
2 *1325:HI 0.000300882
3 an[6] an[7] 0
4 an[5] an[6] 0
*RES
1 *1325:HI an[6] 20.2797 
*END

*D_NET *10 0.000665379
*CONN
*P an[7] O
*I *1326:LO O *D sky130_fd_sc_hd__conb_1
*CAP
1 an[7] 0.000321848
2 *1326:LO 0.000321848
3 an[7] seg[0] 0
4 an[7] *214:10 2.16833e-05
5 an[6] an[7] 0
*RES
1 *1326:LO an[7] 18.1229 
*END

*D_NET *11 0.0164675
*CONN
*P clk I
*I *1528:A I *D sky130_fd_sc_hd__clkbuf_16
*CAP
1 clk 0.00613961
2 *1528:A 0.00613961
3 *1528:A *1346:D 0
4 *1528:A *1529:A 0
5 *1528:A *87:24 0.000374764
6 *1528:A *105:20 9.99056e-05
7 *1528:A *124:30 0.00206941
8 *1528:A *146:20 0
9 *1528:A *150:30 0.00126723
10 *1528:A *181:58 0.000377011
*RES
1 clk *1528:A 41.6158 
*END

*D_NET *12 0.000742608
*CONN
*P rst I
*I *1536:A I *D sky130_fd_sc_hd__clkbuf_4
*CAP
1 rst 0.000322501
2 *1536:A 0.000322501
3 *1536:A *209:14 9.76057e-05
*RES
1 rst *1536:A 20.3199 
*END

*D_NET *13 0.000614628
*CONN
*P seg[0] O
*I *1537:X O *D sky130_fd_sc_hd__buf_1
*CAP
1 seg[0] 0.000307314
2 *1537:X 0.000307314
3 seg[0] seg[1] 0
4 seg[0] *1378:A 0
5 an[7] seg[0] 0
*RES
1 *1537:X seg[0] 18.1229 
*END

*D_NET *14 0.000762791
*CONN
*P seg[1] O
*I *1538:X O *D sky130_fd_sc_hd__buf_1
*CAP
1 seg[1] 0.000381396
2 *1538:X 0.000381396
3 seg[1] seg[2] 0
4 seg[0] seg[1] 0
*RES
1 *1538:X seg[1] 19.3371 
*END

*D_NET *15 0.000617041
*CONN
*P seg[2] O
*I *1539:X O *D sky130_fd_sc_hd__buf_1
*CAP
1 seg[2] 0.000308521
2 *1539:X 0.000308521
3 seg[2] seg[3] 0
4 seg[1] seg[2] 0
*RES
1 *1539:X seg[2] 20.2797 
*END

*D_NET *16 0.000802555
*CONN
*P seg[3] O
*I *1540:X O *D sky130_fd_sc_hd__buf_1
*CAP
1 seg[3] 0.000401278
2 *1540:X 0.000401278
3 seg[3] seg[4] 0
4 seg[3] *43:10 0
5 seg[2] seg[3] 0
*RES
1 *1540:X seg[3] 19.3371 
*END

*D_NET *17 0.00062356
*CONN
*P seg[4] O
*I *1541:X O *D sky130_fd_sc_hd__buf_1
*CAP
1 seg[4] 0.00031178
2 *1541:X 0.00031178
3 seg[4] seg[5] 0
4 seg[3] seg[4] 0
*RES
1 *1541:X seg[4] 18.1229 
*END

*D_NET *18 0.000788034
*CONN
*P seg[5] O
*I *1542:X O *D sky130_fd_sc_hd__buf_1
*CAP
1 seg[5] 0.000368194
2 *1542:X 0.000368194
3 seg[5] seg[6] 0
4 seg[5] *1542:A 5.16464e-05
5 seg[4] seg[5] 0
*RES
1 *1542:X seg[5] 19.3371 
*END

*D_NET *19 0.000625661
*CONN
*P seg[6] O
*I *1543:X O *D sky130_fd_sc_hd__buf_1
*CAP
1 seg[6] 0.000312831
2 *1543:X 0.000312831
3 seg[5] seg[6] 0
*RES
1 *1543:X seg[6] 20.2797 
*END

*D_NET *20 0.0178406
*CONN
*I *1495:D I *D sky130_fd_sc_hd__dfrtp_4
*I *1355:Y O *D sky130_fd_sc_hd__nor2_1
*CAP
1 *1495:D 0
2 *1355:Y 0.000586262
3 *20:18 0.00122397
4 *20:10 0.00258389
5 *20:8 0.00194618
6 *20:8 *1355:B 0.000133714
7 *20:8 *1436:B 0.000440653
8 *20:10 *41:18 0.000633764
9 *20:10 *45:14 3.34634e-05
10 *20:10 *134:12 0.00321911
11 *20:10 *134:37 0
12 *20:10 *141:16 0
13 *20:10 *151:14 0.00258456
14 *20:18 *1353:A 0.000416302
15 *20:18 *1365:B 0.000235222
16 *20:18 *1495:CLK 5.33433e-05
17 *20:18 *106:8 0.00195571
18 *20:18 *106:27 8.05541e-05
19 *20:18 *134:37 0.00156932
20 *20:18 *146:20 0.000144621
*RES
1 *1355:Y *20:8 21.7286 
2 *20:8 *20:10 48.0893 
3 *20:10 *20:18 42.0357 
4 *20:18 *1495:D 9.3 
*END

*D_NET *21 0.00724911
*CONN
*I *1505:D I *D sky130_fd_sc_hd__dfrtp_4
*I *1391:X O *D sky130_fd_sc_hd__clkbuf_1
*CAP
1 *1505:D 0.00112718
2 *1391:X 0.00142646
3 *21:18 0.00255364
4 *1505:D *1331:B 5.50395e-05
5 *1505:D *1443:C 0
6 *1505:D *1505:RESET_B 0
7 *1505:D *1518:CLK 0.000237356
8 *1505:D *1518:RESET_B 0.00034864
9 *1505:D *79:8 0
10 *1505:D *109:44 0.000315792
11 *21:18 *1440:A2 0.000102515
12 *21:18 *1443:A 0.000904977
13 *21:18 *1489:A 7.65689e-05
14 *21:18 *100:14 0.000100936
*RES
1 *1391:X *21:18 42.0679 
2 *21:18 *1505:D 39.425 
*END

*D_NET *22 0.016722
*CONN
*I *1506:D I *D sky130_fd_sc_hd__dfrtp_2
*I *1394:Y O *D sky130_fd_sc_hd__nor3_1
*CAP
1 *1506:D 0.00231503
2 *1394:Y 0.00154446
3 *22:20 0.00330646
4 *22:12 0.00253589
5 *1506:D *1441:A1 6.65443e-05
6 *1506:D *1473:A 0.000175892
7 *1506:D *1506:RESET_B 0.000805542
8 *1506:D *1507:CLK 0.000158146
9 *1506:D *1507:RESET_B 0.000713969
10 *1506:D *166:10 8.13107e-05
11 *1506:D *176:12 7.95888e-05
12 *1506:D *180:70 4.36321e-05
13 *1506:D *202:57 7.99211e-05
14 *22:12 *230:DIODE 6.79277e-05
15 *22:12 *1386:A 0.00107609
16 *22:12 *1394:B 9.90431e-05
17 *22:12 *1394:C 0.000200628
18 *22:12 *1512:RESET_B 4.60235e-05
19 *22:12 *95:113 1.34548e-05
20 *22:12 *129:8 1.58163e-05
21 *22:12 *134:47 0.000218396
22 *22:12 *139:14 0.000392013
23 *22:12 *188:31 0.000649603
24 *22:12 *213:25 0.000480057
25 *22:20 *1357:A 5.20529e-05
26 *22:20 *1428:A 3.47641e-06
27 *22:20 *1455:B 8.39939e-05
28 *22:20 *1459:B1_N 4.62551e-05
29 *22:20 *1485:A 9.71197e-05
30 *22:20 *1511:RESET_B 0.000221658
31 *22:20 *47:12 1.94945e-05
32 *22:20 *76:50 2.37838e-05
33 *22:20 *84:49 0.000302719
34 *22:20 *85:10 9.78828e-05
35 *22:20 *108:18 6.499e-05
36 *22:20 *180:70 6.26276e-05
37 *22:20 *181:75 0
38 *22:20 *186:34 0
39 *22:20 *189:87 1.8791e-05
40 *22:20 *198:16 6.56563e-05
41 *22:20 *205:50 0.000256746
42 *22:20 *210:62 9.22222e-06
43 *22:20 *211:27 0.000130111
*RES
1 *1394:Y *22:12 44.05 
2 *22:12 *22:20 25.75 
3 *22:20 *1506:D 47.8 
*END

*D_NET *23 0.0115396
*CONN
*I *1507:D I *D sky130_fd_sc_hd__dfrtp_4
*I *1398:X O *D sky130_fd_sc_hd__buf_1
*CAP
1 *1507:D 0.00106402
2 *1398:X 0.0011855
3 *23:12 0.00224952
4 *1507:D *1383:C 0.00032716
5 *1507:D *48:20 0.00121188
6 *1507:D *88:62 0.000418751
7 *1507:D *162:26 0.000135968
8 *1507:D *203:31 0.000744172
9 *23:12 *85:22 0.00156862
10 *23:12 *131:26 0.000296678
11 *23:12 *153:28 0.000774133
12 *23:12 *203:31 1.0945e-05
13 *23:12 *217:10 0.00155223
*RES
1 *1398:X *23:12 46.8893 
2 *23:12 *1507:D 41.2107 
*END

*D_NET *24 0.000476404
*CONN
*I *1508:D I *D sky130_fd_sc_hd__dfrtp_2
*I *1402:X O *D sky130_fd_sc_hd__clkbuf_1
*CAP
1 *1508:D 0.000110634
2 *1402:X 0.000110634
3 *1508:D *1493:A 5.17614e-05
4 *1508:D *149:14 0.000100831
5 *1508:D *157:16 0.000102545
*RES
1 *1402:X *1508:D 29.8857 
*END

*D_NET *25 0.0215029
*CONN
*I *1509:D I *D sky130_fd_sc_hd__dfrtp_2
*I *1407:X O *D sky130_fd_sc_hd__buf_1
*CAP
1 *1509:D 0.00205393
2 *1407:X 0.00426793
3 *25:18 0.00632186
4 *1509:D *1341:A2 0
5 *1509:D *1509:RESET_B 0.000178346
6 *1509:D *1527:A 0.00025655
7 *1509:D *55:8 0.000366971
8 *1509:D *146:20 0
9 *1509:D *149:54 8.08476e-06
10 *1509:D *151:8 0.000308139
11 *25:18 *1342:D 0.000107777
12 *25:18 *1381:B 0.000245836
13 *25:18 *1503:D 0.000102343
14 *25:18 *41:18 0.00418659
15 *25:18 *45:14 0.000254165
16 *25:18 *98:12 0.00011066
17 *25:18 *108:18 0.000140331
18 *25:18 *146:20 0
19 *25:18 *151:14 0.00011617
20 *25:18 *178:14 0.000215425
21 *25:18 *190:28 0.000839625
22 *25:18 *201:14 0.000146512
23 *25:18 *201:16 0.000149257
24 *25:18 *219:16 0.00112635
*RES
1 *1407:X *25:18 49.9631 
2 *25:18 *1509:D 26.2994 
*END

*D_NET *26 0.0134133
*CONN
*I *1510:D I *D sky130_fd_sc_hd__dfrtp_2
*I *1411:Y O *D sky130_fd_sc_hd__a211oi_1
*CAP
1 *1510:D 0.00136323
2 *1411:Y 0
3 *26:8 0.00288736
4 *26:6 0.00152413
5 *1510:D *1364:B1 0.00102712
6 *1510:D *1435:A 0.000423864
7 *1510:D *1510:RESET_B 7.47236e-05
8 *1510:D *27:12 2.13481e-06
9 *1510:D *141:43 7.60692e-05
10 *1510:D *142:22 9.30682e-05
11 *1510:D *205:8 5.52238e-05
12 *1510:D *205:50 0.00018045
13 *1510:D *207:79 6.05161e-06
14 *26:8 *1432:D 0.000333699
15 *26:8 *1520:D 0.00115322
16 *26:8 *118:10 0.00247355
17 *26:8 *118:18 0.000726693
18 *26:8 *147:16 0.000415918
19 *26:8 *147:18 0.000190257
20 *26:8 *155:12 0.000233481
21 *26:8 *216:18 0.00017309
*RES
1 *1411:Y *26:6 13.8 
2 *26:6 *26:8 52.3393 
3 *26:8 *1510:D 35.9786 
*END

*D_NET *27 0.00587334
*CONN
*I *1511:D I *D sky130_fd_sc_hd__dfrtp_4
*I *1415:X O *D sky130_fd_sc_hd__clkbuf_1
*CAP
1 *1511:D 0.000835667
2 *1415:X 0.000857607
3 *27:12 0.00169327
4 *1511:D *1373:C 0.000181803
5 *1511:D *1511:CLK 8.07313e-05
6 *1511:D *54:12 0.000232399
7 *1511:D *120:8 3.32631e-05
8 *27:12 *1364:B1 4.95394e-05
9 *27:12 *1386:D 0.000750432
10 *27:12 *1404:B 4.94947e-05
11 *27:12 *1484:A 0
12 *27:12 *1510:RESET_B 0.000136951
13 *27:12 *120:18 0.000265256
14 *27:12 *129:10 0.000704788
15 *1510:D *27:12 2.13481e-06
*RES
1 *1415:X *27:12 38.4429 
2 *27:12 *1511:D 24.2107 
*END

*D_NET *28 0.0133686
*CONN
*I *1512:D I *D sky130_fd_sc_hd__dfrtp_4
*I *1417:Y O *D sky130_fd_sc_hd__nor2_1
*CAP
1 *1512:D 0.000996823
2 *1417:Y 0.000912257
3 *28:10 0.00190908
4 *1512:D *1512:CLK 7.3237e-05
5 *1512:D *177:14 0.00192064
6 *1512:D *187:22 0.00179978
7 *1512:D *203:45 0.00115878
8 *1512:D *204:66 0.000894045
9 *1512:D *205:54 5.74499e-06
10 *28:10 *40:16 7.83587e-05
11 *28:10 *41:18 0.000333741
12 *28:10 *141:16 0.00143995
13 *28:10 *151:14 0.00182959
14 *28:10 *164:12 0
15 *28:10 *218:14 1.6603e-05
*RES
1 *1417:Y *28:10 48.7821 
2 *28:10 *1512:D 44.7464 
*END

*D_NET *29 0.0106399
*CONN
*I *1513:D I *D sky130_fd_sc_hd__dfrtp_4
*I *1420:X O *D sky130_fd_sc_hd__o211a_1
*CAP
1 *1513:D 0.000722991
2 *1420:X 0.00236374
3 *29:30 0.00308673
4 *1513:D *1383:A 0.000163047
5 *1513:D *1383:B 2.13277e-05
6 *1513:D *1433:A2 0
7 *1513:D *1457:B 8.64516e-06
8 *1513:D *1502:D 4.31525e-05
9 *1513:D *1526:CLK 3.97356e-05
10 *1513:D *1526:RESET_B 8.88909e-05
11 *1513:D *86:10 0
12 *1513:D *86:32 0
13 *1513:D *109:38 4.46186e-06
14 *1513:D *127:12 0
15 *1513:D *210:56 0
16 *29:30 *1443:B 0.000380738
17 *29:30 *87:18 0.00141796
18 *29:30 *97:12 8.79856e-06
19 *29:30 *97:18 1.49363e-05
20 *29:30 *105:20 0.000234283
21 *29:30 *127:12 0
22 *29:30 *157:16 3.96984e-05
23 *29:30 *174:24 0.000409351
24 *29:30 *187:68 0.000912972
25 *29:30 *210:56 0.000400999
26 *29:30 *220:42 0.000277443
*RES
1 *1420:X *29:30 41.3595 
2 *29:30 *1513:D 25.9429 
*END

*D_NET *30 0.00969376
*CONN
*I *1514:D I *D sky130_fd_sc_hd__dfrtp_4
*I *1426:X O *D sky130_fd_sc_hd__buf_1
*CAP
1 *1514:D 0.0008604
2 *1426:X 0.00157513
3 *30:8 0.00243553
4 *1514:D *1395:A 4.46186e-06
5 *1514:D *1514:RESET_B 0.000168915
6 *1514:D *39:22 0.000112223
7 *1514:D *47:28 0.00171293
8 *1514:D *202:57 0.00113506
9 *1514:D *208:41 6.02429e-05
10 *1514:D *208:108 6.34006e-05
11 *1514:D *209:39 0.00030229
12 *30:8 *1338:A1 3.15318e-05
13 *30:8 *1339:B1 0.000564131
14 *30:8 *1497:RESET_B 0.000262114
15 *30:8 *50:22 0.000281962
16 *30:8 *187:111 2.54304e-06
17 *30:8 *189:95 0.000120895
*RES
1 *1426:X *30:8 33.6393 
2 *30:8 *1514:D 40.1036 
*END

*D_NET *31 0.0107531
*CONN
*I *1496:D I *D sky130_fd_sc_hd__dfrtp_4
*I *1359:X O *D sky130_fd_sc_hd__buf_1
*CAP
1 *1496:D 0.000218186
2 *1359:X 0.000720052
3 *31:14 0.00232763
4 *31:8 0.00282949
5 *1496:D *1458:A 0.000519378
6 *1496:D *1496:CLK 7.88091e-05
7 *1496:D *1519:RESET_B 0.00012546
8 *1496:D *61:14 0.000140243
9 *1496:D *112:18 0.00051688
10 *31:8 *36:12 0.000244533
11 *31:8 *109:44 0.000169383
12 *31:14 *1349:A3 0.00012013
13 *31:14 *1471:A 0.000148189
14 *31:14 *36:12 0.00197514
15 *31:14 *91:16 1.50904e-05
16 *31:14 *101:14 0
17 *31:14 *143:20 0.000604554
18 *31:14 *174:40 0
*RES
1 *1359:X *31:8 19.0946 
2 *31:8 *31:14 46.8482 
3 *31:14 *1496:D 24.1929 
*END

*D_NET *32 0.0149486
*CONN
*I *1515:D I *D sky130_fd_sc_hd__dfrtp_1
*I *1430:X O *D sky130_fd_sc_hd__clkbuf_1
*CAP
1 *1515:D 0.000913415
2 *1430:X 0.000530149
3 *32:16 0.00168733
4 *32:8 0.00130407
5 *1515:D *1492:A 5.22622e-05
6 *1515:D *1515:CLK 0.00034887
7 *1515:D *1517:D 0.000172422
8 *1515:D *1523:D 0.000108744
9 *1515:D *1523:RESET_B 0.00011503
10 *1515:D *146:20 0.000121549
11 *1515:D *166:10 0.00113693
12 *1515:D *187:12 5.89548e-05
13 *1515:D *191:12 5.42384e-07
14 *1515:D *191:16 0.000498758
15 *32:8 *1393:B 0.000261922
16 *32:8 *47:45 0.00172773
17 *32:8 *134:73 0.00054516
18 *32:8 *183:18 0.00105229
19 *32:8 *183:51 8.59075e-05
20 *32:16 *1497:CLK 0.000139208
21 *32:16 *98:12 7.3125e-05
22 *32:16 *98:14 6.73707e-06
23 *32:16 *114:18 0.000138562
24 *32:16 *146:20 0.000352537
25 *32:16 *168:24 0.000564931
26 *32:16 *168:55 0.00117911
27 *32:16 *176:37 0.000435258
28 *32:16 *191:16 0.00126764
29 *32:16 *218:14 6.94952e-05
*RES
1 *1430:X *32:8 33.6393 
2 *32:8 *32:16 37.8036 
3 *32:16 *1515:D 38.8893 
*END

*D_NET *33 0.00612653
*CONN
*I *1516:D I *D sky130_fd_sc_hd__dfrtp_2
*I *1433:Y O *D sky130_fd_sc_hd__a211oi_1
*CAP
1 *1516:D 0
2 *1433:Y 0.00107858
3 *33:16 0.00107858
4 *33:16 *1330:A 0.00119351
5 *33:16 *1332:B 0.00032519
6 *33:16 *1369:A 5.19522e-06
7 *33:16 *1400:A 3.82501e-05
8 *33:16 *1442:A 0.000757354
9 *33:16 *1516:CLK 0.000546276
10 *33:16 *88:62 5.96516e-05
11 *33:16 *95:36 1.11775e-05
12 *33:16 *95:53 1.8783e-05
13 *33:16 *130:22 0.000247648
14 *33:16 *163:12 0.000136676
15 *33:16 *184:97 0.000100479
16 *33:16 *187:34 0.000302447
17 *33:16 *202:10 0.0002139
18 *33:16 *210:56 1.28364e-05
*RES
1 *1433:Y *33:16 48.3714 
2 *33:16 *1516:D 9.3 
*END

*D_NET *34 0.00101173
*CONN
*I *1517:D I *D sky130_fd_sc_hd__dfrtp_1
*I *1437:X O *D sky130_fd_sc_hd__clkbuf_1
*CAP
1 *1517:D 0.000188315
2 *1437:X 0.000188315
3 *1517:D *1365:B 0.00020212
4 *1517:D *114:18 8.07874e-05
5 *1517:D *166:10 0.000165105
6 *1517:D *191:12 1.46689e-05
7 *1515:D *1517:D 0.000172422
*RES
1 *1437:X *1517:D 33.7964 
*END

*D_NET *35 0.00527132
*CONN
*I *1518:D I *D sky130_fd_sc_hd__dfrtp_2
*I *1440:Y O *D sky130_fd_sc_hd__a221oi_1
*CAP
1 *1518:D 0
2 *1440:Y 0.0013908
3 *35:12 0.0013908
4 *35:12 *1411:C1 5.32956e-05
5 *35:12 *1487:A 2.46107e-05
6 *35:12 *1518:CLK 0.000125057
7 *35:12 *1518:RESET_B 0.000135028
8 *35:12 *1521:RESET_B 0.000295671
9 *35:12 *47:95 0.000369825
10 *35:12 *47:108 0.000884808
11 *35:12 *47:110 0.000230316
12 *35:12 *74:16 4.58194e-05
13 *35:12 *133:10 0
14 *35:12 *181:162 0
15 *35:12 *207:108 0.000325292
*RES
1 *1440:Y *35:12 49.3714 
2 *35:12 *1518:D 9.3 
*END

*D_NET *36 0.0158706
*CONN
*I *1519:D I *D sky130_fd_sc_hd__dfrtp_4
*I *1443:Y O *D sky130_fd_sc_hd__nor3_1
*CAP
1 *1519:D 0.000216129
2 *1443:Y 0.00038857
3 *36:12 0.00363177
4 *36:10 0.00380422
5 *1519:D *1342:C 0.00014947
6 *1519:D *1409:A 5.59013e-05
7 *1519:D *178:18 0.000547124
8 *36:10 *43:10 0.000108848
9 *36:10 *179:54 0.000899529
10 *36:12 *1387:C 0.000137983
11 *36:12 *109:44 0.000312222
12 *36:12 *128:22 0.000814126
13 *36:12 *201:45 0.00165422
14 *36:12 *218:42 0.000930849
15 *31:8 *36:12 0.000244533
16 *31:14 *36:12 0.00197514
*RES
1 *1443:Y *36:10 29.6571 
2 *36:10 *36:12 78.5714 
3 *36:12 *1519:D 25.4071 
*END

*D_NET *37 0.00890438
*CONN
*I *1520:D I *D sky130_fd_sc_hd__dfrtp_4
*I *1447:X O *D sky130_fd_sc_hd__clkbuf_1
*CAP
1 *1520:D 0.000653972
2 *1447:X 0.00107838
3 *37:20 0.00173235
4 *1520:D *1520:CLK 1.07719e-05
5 *1520:D *44:12 0.000514854
6 *1520:D *155:12 0.00115251
7 *1520:D *214:14 0.000984348
8 *37:20 *1347:C 0.000848521
9 *37:20 *1374:B 0.000257076
10 *37:20 *129:10 0.000255547
11 *37:20 *145:12 0.000262834
12 *37:20 *165:16 0
13 *37:20 *165:26 0
14 *26:8 *1520:D 0.00115322
*RES
1 *1447:X *37:20 49.4964 
2 *37:20 *1520:D 43.4071 
*END

*D_NET *38 0.00726249
*CONN
*I *1521:D I *D sky130_fd_sc_hd__dfrtp_1
*I *1449:X O *D sky130_fd_sc_hd__o211a_1
*CAP
1 *1521:D 0.000472266
2 *1449:X 0.00115401
3 *38:12 0.00162627
4 *1521:D *1383:C 5.72208e-05
5 *1521:D *1395:A 0.000180872
6 *1521:D *1399:A2 0.00040073
7 *1521:D *1521:CLK 2.25101e-05
8 *1521:D *68:16 0.000894462
9 *1521:D *162:26 0.000143169
10 *1521:D *202:57 6.07328e-05
11 *38:12 *1346:C 0.00111831
12 *38:12 *1346:D 0
13 *38:12 *1395:A 0.000180059
14 *38:12 *1395:B 3.35685e-06
15 *38:12 *1504:RESET_B 6.49952e-05
16 *38:12 *68:16 8.0614e-05
17 *38:12 *91:16 0.000185403
18 *38:12 *102:16 0.000438417
19 *38:12 *174:40 0
20 *38:12 *188:90 0
21 *38:12 *225:29 0.000179097
*RES
1 *1449:X *38:12 39.7911 
2 *38:12 *1521:D 27.5232 
*END

*D_NET *39 0.0224973
*CONN
*I *1497:D I *D sky130_fd_sc_hd__dfrtp_4
*I *229:DIODE I *D sky130_fd_sc_hd__diode_2
*I *1363:X O *D sky130_fd_sc_hd__buf_1
*CAP
1 *1497:D 0.000146552
2 *229:DIODE 1.66347e-05
3 *1363:X 0.00700114
4 *39:22 0.00716433
5 *229:DIODE *98:12 4.46618e-05
6 *229:DIODE *114:18 4.28249e-05
7 *1497:D *1497:CLK 0.000309447
8 *1497:D *1497:RESET_B 6.26177e-05
9 *1497:D *98:12 3.26288e-05
10 *1497:D *114:18 4.00349e-05
11 *1497:D *218:14 0.000224535
12 *39:22 *1498:D 0.000154229
13 *39:22 *1503:D 0.00231969
14 *39:22 *1519:RESET_B 0.00145233
15 *39:22 *1529:A 0.000980839
16 *39:22 *47:28 0.000158398
17 *39:22 *104:16 1.82e-05
18 *39:22 *131:26 0.000724145
19 *39:22 *141:14 0.000321598
20 *39:22 *150:30 0.000144981
21 *39:22 *162:26 0
22 *39:22 *170:18 0.000234866
23 *39:22 *188:90 0.000138793
24 *39:22 *199:56 0.000317223
25 *39:22 *220:42 0.000334417
26 *1514:D *39:22 0.000112223
*RES
1 *1363:X *39:22 43.4994 
2 *39:22 *229:DIODE 14.3804 
3 *39:22 *1497:D 18.6125 
*END

*D_NET *40 0.0152679
*CONN
*I *1498:D I *D sky130_fd_sc_hd__dfrtp_2
*I *1366:X O *D sky130_fd_sc_hd__buf_1
*CAP
1 *1498:D 0.00202141
2 *1366:X 0.00196344
3 *40:16 0.00398484
4 *1498:D *1386:B 0.000155672
5 *1498:D *1426:A 7.13412e-06
6 *1498:D *1433:A2 0.00015685
7 *1498:D *1455:A 0.000542152
8 *1498:D *1503:D 6.22883e-05
9 *1498:D *95:53 0
10 *1498:D *120:62 2.93106e-05
11 *1498:D *141:14 0.00287846
12 *1498:D *148:14 0
13 *1498:D *208:61 0.000922593
14 *1498:D *224:14 0.000384301
15 *40:16 *114:18 4.01728e-05
16 *40:16 *151:14 7.6644e-05
17 *40:16 *224:22 0.00181004
18 *28:10 *40:16 7.83587e-05
19 *39:22 *1498:D 0.000154229
*RES
1 *1366:X *40:16 47.9071 
2 *40:16 *1498:D 35.6453 
*END

*D_NET *41 0.0183819
*CONN
*I *1499:D I *D sky130_fd_sc_hd__dfrtp_4
*I *1371:X O *D sky130_fd_sc_hd__buf_1
*CAP
1 *1499:D 7.40504e-05
2 *1371:X 0.00543339
3 *41:18 0.00550744
4 *1499:D *1342:C 1.01912e-05
5 *1499:D *1519:CLK 8.13261e-06
6 *1499:D *183:20 3.67279e-06
7 *41:18 *1365:B 7.33295e-05
8 *41:18 *1434:B 0
9 *41:18 *45:14 0.000169715
10 *41:18 *94:10 0
11 *41:18 *134:12 0.000340464
12 *41:18 *134:37 0.000210801
13 *41:18 *146:20 0
14 *41:18 *151:8 0.000322529
15 *41:18 *151:14 0.000716272
16 *41:18 *166:10 0
17 *41:18 *178:18 0.0001033
18 *41:18 *183:20 0.000113064
19 *41:18 *201:16 0.000141485
20 *20:10 *41:18 0.000633764
21 *25:18 *41:18 0.00418659
22 *28:10 *41:18 0.000333741
*RES
1 *1371:X *41:18 47.6416 
2 *41:18 *1499:D 20.9798 
*END

*D_NET *42 0.013926
*CONN
*I *1500:D I *D sky130_fd_sc_hd__dfrtp_2
*I *1374:Y O *D sky130_fd_sc_hd__nor3_1
*CAP
1 *1500:D 0.000399679
2 *1374:Y 0.00134888
3 *42:24 0.00285233
4 *42:16 0.00380153
5 *1500:D *1501:RESET_B 0.000653762
6 *1500:D *193:14 0.000759489
7 *1500:D *216:32 2.87452e-05
8 *42:16 *1374:B 7.02611e-05
9 *42:16 *43:16 0.00082282
10 *42:16 *155:32 9.69455e-05
11 *42:16 *155:59 5.33005e-05
12 *42:16 *209:39 2.06178e-05
13 *42:24 *227:DIODE 1.34631e-05
14 *42:24 *1501:RESET_B 0.000861827
15 *42:24 *1508:RESET_B 0.00101815
16 *42:24 *43:16 8.43535e-06
17 *42:24 *43:24 0.000555914
18 *42:24 *183:51 1.01241e-05
19 *42:24 *193:14 0.000549748
*RES
1 *1374:Y *42:16 36.3357 
2 *42:16 *42:24 40.5625 
3 *42:24 *1500:D 24.992 
*END

*D_NET *43 0.0142463
*CONN
*I *1501:D I *D sky130_fd_sc_hd__dfrtp_1
*I *227:DIODE I *D sky130_fd_sc_hd__diode_2
*I *1378:X O *D sky130_fd_sc_hd__buf_1
*CAP
1 *1501:D 0
2 *227:DIODE 0.000113776
3 *1378:X 0.000488999
4 *43:24 0.000696739
5 *43:16 0.0030416
6 *43:10 0.00294763
7 *227:DIODE *1501:RESET_B 8.80625e-05
8 *227:DIODE *214:46 0.00012783
9 *43:10 *1378:A 0.000387266
10 *43:10 *1443:B 2.06112e-05
11 *43:10 *1466:A 8.53111e-05
12 *43:10 *49:10 0.000291002
13 *43:10 *179:54 7.43828e-05
14 *43:10 *179:78 6.27091e-05
15 *43:16 *1347:B 0.00068482
16 *43:16 *1374:A 0.000739777
17 *43:16 *1374:B 9.47028e-05
18 *43:16 *1508:CLK 0.000139907
19 *43:16 *1508:RESET_B 0.000830994
20 *43:16 *47:108 8.27532e-05
21 *43:16 *155:59 0.000541037
22 *43:24 *1501:RESET_B 0.000102268
23 *43:24 *155:59 1.55885e-05
24 *43:24 *214:46 0.000367544
25 *43:24 *222:10 0.000711498
26 seg[3] *43:10 0
27 *36:10 *43:10 0.000108848
28 *42:16 *43:16 0.00082282
29 *42:24 *227:DIODE 1.34631e-05
30 *42:24 *43:16 8.43535e-06
31 *42:24 *43:24 0.000555914
*RES
1 *1378:X *43:10 33.3 
2 *43:10 *43:16 49.8571 
3 *43:16 *43:24 17.125 
4 *43:24 *227:DIODE 11.8893 
5 *43:24 *1501:D 9.3 
*END

*D_NET *44 0.0141174
*CONN
*I *1502:D I *D sky130_fd_sc_hd__dfrtp_1
*I *1380:Y O *D sky130_fd_sc_hd__a211oi_2
*CAP
1 *1502:D 0.000326756
2 *1380:Y 9.84094e-05
3 *44:12 0.00325995
4 *44:10 0.0030316
5 *1502:D *1439:B 8.11531e-05
6 *1502:D *86:32 0
7 *1502:D *127:12 0.000185124
8 *44:10 *1378:A 0.000172681
9 *44:10 *1466:A 0
10 *44:12 *1383:A 0.000137561
11 *44:12 *1446:B 0.000222238
12 *44:12 *173:12 0.00106874
13 *44:12 *214:14 0.000561238
14 *44:12 *220:89 0.000715564
15 *44:12 *223:25 0.00369836
16 *1513:D *1502:D 4.31525e-05
17 *1520:D *44:12 0.000514854
*RES
1 *1380:Y *44:10 20.55 
2 *44:10 *44:12 61.7321 
3 *44:12 *1502:D 22.9696 
*END

*D_NET *45 0.0183412
*CONN
*I *1503:D I *D sky130_fd_sc_hd__dfrtp_4
*I *1384:X O *D sky130_fd_sc_hd__buf_1
*CAP
1 *1503:D 0.00306046
2 *1384:X 0.00118853
3 *45:14 0.00424899
4 *1503:D *1381:A 5.41797e-06
5 *1503:D *1381:B 0.000423226
6 *1503:D *1424:A 0
7 *1503:D *50:22 0.000901798
8 *1503:D *98:12 0.000288181
9 *1503:D *108:18 0.000562224
10 *1503:D *134:12 0
11 *1503:D *141:14 2.34525e-05
12 *1503:D *148:14 0.000916006
13 *1503:D *156:31 0
14 *1503:D *178:14 4.15914e-05
15 *1503:D *180:125 0.000157678
16 *1503:D *201:14 0.000157218
17 *1503:D *208:61 0.000544168
18 *1503:D *219:14 0
19 *45:14 *95:12 0.0001827
20 *45:14 *134:12 0.000497992
21 *45:14 *183:18 0
22 *45:14 *183:20 0
23 *45:14 *201:14 0.000920049
24 *45:14 *201:16 0.00127984
25 *1498:D *1503:D 6.22883e-05
26 *20:10 *45:14 3.34634e-05
27 *25:18 *1503:D 0.000102343
28 *25:18 *45:14 0.000254165
29 *39:22 *1503:D 0.00231969
30 *41:18 *45:14 0.000169715
*RES
1 *1384:X *45:14 49.4607 
2 *45:14 *1503:D 49.7844 
*END

*D_NET *46 0.00385946
*CONN
*I *1504:D I *D sky130_fd_sc_hd__dfrtp_1
*I *1387:Y O *D sky130_fd_sc_hd__nor3_1
*CAP
1 *1504:D 0.000892113
2 *1387:Y 0.000892113
3 *1504:D *1362:A 0.000310643
4 *1504:D *1387:A 0.000967549
5 *1504:D *1504:RESET_B 0.000255191
6 *1504:D *218:42 8.62237e-05
7 *1504:D *220:12 0.000361469
8 *1504:D *225:12 9.41642e-05
*RES
1 *1387:Y *1504:D 49.0643 
*END

*D_NET *47 0.0507253
*CONN
*I *1394:A I *D sky130_fd_sc_hd__nor3_1
*I *1443:A I *D sky130_fd_sc_hd__nor3_1
*I *1440:C1 I *D sky130_fd_sc_hd__a221oi_1
*I *1411:C1 I *D sky130_fd_sc_hd__a211oi_1
*I *1374:A I *D sky130_fd_sc_hd__nor3_1
*I *1433:C1 I *D sky130_fd_sc_hd__a211oi_1
*I *1417:A I *D sky130_fd_sc_hd__nor2_1
*I *1355:B I *D sky130_fd_sc_hd__nor2_1
*I *1387:A I *D sky130_fd_sc_hd__nor3_1
*I *1522:D I *D sky130_fd_sc_hd__dfrtp_4
*I *1354:X O *D sky130_fd_sc_hd__clkbuf_4
*CAP
1 *1394:A 0.000161702
2 *1443:A 0.000405352
3 *1440:C1 1.69531e-05
4 *1411:C1 0.00044522
5 *1374:A 0.000289826
6 *1433:C1 0.000115205
7 *1417:A 0.000712779
8 *1355:B 0.000672739
9 *1387:A 0.000536173
10 *1522:D 0.000142318
11 *1354:X 4.62542e-05
12 *47:110 0.000549902
13 *47:108 0.000819593
14 *47:95 0.00190694
15 *47:91 0.00393641
16 *47:47 0.00126446
17 *47:45 0.00225165
18 *47:28 0.00307482
19 *47:26 0.00226889
20 *47:12 0.00323488
21 *1355:B *1436:B 0.000599592
22 *1355:B *183:18 0.000433868
23 *1387:A *1362:A 9.7356e-05
24 *1387:A *1393:B 0.0011502
25 *1387:A *194:12 0.000244121
26 *1387:A *200:97 0.000386362
27 *1394:A *84:12 4.22135e-06
28 *1394:A *133:10 0
29 *1394:A *221:52 6.01521e-05
30 *1411:C1 *1411:A1 1.74352e-05
31 *1411:C1 *1411:A2 5.52302e-05
32 *1411:C1 *1411:B1 5.52238e-05
33 *1411:C1 *1423:A 0
34 *1411:C1 *1487:A 0
35 *1411:C1 *147:18 4.27838e-05
36 *1411:C1 *207:108 0.000408012
37 *1417:A *194:12 0.000482108
38 *1417:A *196:14 0.000247803
39 *1417:A *209:12 0.000473088
40 *1433:C1 *1517:RESET_B 0.000653025
41 *1433:C1 *163:12 0.000653025
42 *1440:C1 *1331:A 5.33005e-05
43 *1440:C1 *1440:B2 5.33005e-05
44 *1443:A *1443:C 0.000265453
45 *1443:A *1489:A 0.000631177
46 *1443:A *74:16 0.000349104
47 *1522:D *1335:A 2.85234e-05
48 *1522:D *1395:B 0.000280305
49 *1522:D *188:90 0.000281965
50 *47:12 *1523:RESET_B 5.49995e-05
51 *47:12 *76:50 4.76256e-05
52 *47:12 *181:92 1.98839e-05
53 *47:26 *1516:RESET_B 6.53397e-05
54 *47:26 *1523:RESET_B 0.000399156
55 *47:26 *113:16 0.000332352
56 *47:26 *153:10 0
57 *47:26 *206:16 6.69218e-05
58 *47:26 *208:108 4.44813e-05
59 *47:26 *211:10 0.000308913
60 *47:28 *1395:A 9.38483e-05
61 *47:28 *1395:B 5.36422e-05
62 *47:28 *153:10 0
63 *47:28 *170:14 0.000869142
64 *47:28 *170:18 0.000174014
65 *47:28 *187:22 0
66 *47:28 *188:90 0.00111633
67 *47:28 *208:108 0.00026139
68 *47:28 *214:34 7.83659e-05
69 *47:45 *49:12 0.000218454
70 *47:45 *134:73 1.52217e-05
71 *47:47 *1393:B 0.000135573
72 *47:47 *194:12 0.000144732
73 *47:91 *113:16 0.00329243
74 *47:91 *146:20 0
75 *47:95 *1421:B1 0.000225314
76 *47:95 *1422:D 0.000148189
77 *47:95 *84:12 0.000467619
78 *47:95 *133:10 0
79 *47:95 *206:69 0.000223592
80 *47:95 *207:108 0.000652119
81 *47:95 *208:69 1.69115e-05
82 *47:95 *209:72 0.000832952
83 *47:95 *221:52 0.000391382
84 *47:108 *207:108 0.000892776
85 *47:110 *207:108 0.000237285
86 *1504:D *1387:A 0.000967549
87 *1514:D *47:28 0.00171293
88 *20:8 *1355:B 0.000133714
89 *21:18 *1443:A 0.000904977
90 *22:20 *47:12 1.94945e-05
91 *32:8 *47:45 0.00172773
92 *35:12 *1411:C1 5.32956e-05
93 *35:12 *47:95 0.000369825
94 *35:12 *47:108 0.000884808
95 *35:12 *47:110 0.000230316
96 *39:22 *47:28 0.000158398
97 *43:16 *1374:A 0.000739777
98 *43:16 *47:108 8.27532e-05
*RES
1 *1354:X *47:12 18.4332 
2 *47:12 *47:26 23.2025 
3 *47:26 *47:28 39.5893 
4 *47:28 *1522:D 18.1036 
5 *47:28 *47:45 28.4286 
6 *47:45 *47:47 1.94643 
7 *47:47 *1387:A 33.6571 
8 *47:47 *1355:B 28.7107 
9 *47:45 *1417:A 29.175 
10 *47:26 *1433:C1 20.0857 
11 *47:12 *47:91 8.862 
12 *47:91 *47:95 43.9375 
13 *47:95 *1374:A 16.4071 
14 *47:95 *47:108 17.1071 
15 *47:108 *47:110 3.16071 
16 *47:110 *1411:C1 23.3893 
17 *47:110 *1440:C1 14.3357 
18 *47:108 *1443:A 27.8893 
19 *47:91 *1394:A 16.7375 
*END

*D_NET *48 0.0156032
*CONN
*I *1495:RESET_B I *D sky130_fd_sc_hd__dfrtp_4
*I *1461:Y O *D sky130_fd_sc_hd__inv_2
*CAP
1 *1495:RESET_B 0.000448069
2 *1461:Y 0.000883962
3 *48:20 0.00291241
4 *48:12 0.0033483
5 *1495:RESET_B *1400:B 0.000585338
6 *1495:RESET_B *106:27 9.2014e-05
7 *1495:RESET_B *179:131 0.000483351
8 *1495:RESET_B *180:125 1.90936e-05
9 *1495:RESET_B *199:12 7.40975e-05
10 *1495:RESET_B *207:16 0
11 *48:12 *1372:B1 0.00056112
12 *48:12 *1429:B 0.000260244
13 *48:12 *1483:A 0.000283085
14 *48:12 *68:16 0.000133938
15 *48:12 *88:62 4.42685e-05
16 *48:12 *95:68 0.00030824
17 *48:12 *162:26 0.000110352
18 *48:12 *217:26 0.000142725
19 *48:20 *1372:B1 0.000901285
20 *48:20 *1415:A 4.52931e-05
21 *48:20 *1427:B 0.000144896
22 *48:20 *70:18 0.000523366
23 *48:20 *88:62 0.000266994
24 *48:20 *110:24 2.26973e-05
25 *48:20 *113:16 0
26 *48:20 *162:26 0.000243269
27 *48:20 *188:59 5.82204e-05
28 *48:20 *188:65 0.000536664
29 *48:20 *203:31 0.000107128
30 *48:20 *204:24 0.000346025
31 *48:20 *221:10 0.000504852
32 *1507:D *48:20 0.00121188
*RES
1 *1461:Y *48:12 34.3268 
2 *48:12 *48:20 44.7981 
3 *48:20 *1495:RESET_B 15.8929 
*END

*D_NET *49 0.0164438
*CONN
*I *1496:RESET_B I *D sky130_fd_sc_hd__dfrtp_4
*I *1462:Y O *D sky130_fd_sc_hd__inv_2
*CAP
1 *1496:RESET_B 0.000995736
2 *1462:Y 9.23011e-05
3 *49:12 0.00423522
4 *49:10 0.00333179
5 *1496:RESET_B *1496:CLK 0.000891911
6 *1496:RESET_B *183:83 0.000170578
7 *1496:RESET_B *208:22 0.00214653
8 *49:10 *1466:A 5.79701e-05
9 *49:10 *193:28 0.000173751
10 *49:12 *1399:A2 0.000126907
11 *49:12 *1402:A 0.000883165
12 *49:12 *1493:A 7.22686e-05
13 *49:12 *1538:A 5.33005e-05
14 *49:12 *78:12 4.04683e-05
15 *49:12 *88:74 0.000645479
16 *49:12 *115:22 0.000177596
17 *49:12 *134:73 0.000257619
18 *49:12 *153:28 4.7663e-05
19 *49:12 *156:31 9.58632e-05
20 *49:12 *165:26 0.00035119
21 *49:12 *181:58 0.000595671
22 *49:12 *181:124 0.000178503
23 *49:12 *189:26 0.000312819
24 *43:10 *49:10 0.000291002
25 *47:45 *49:12 0.000218454
*RES
1 *1462:Y *49:10 22.0679 
2 *49:10 *49:12 56.8036 
3 *49:12 *1496:RESET_B 38.3214 
*END

*D_NET *50 0.0124314
*CONN
*I *1497:RESET_B I *D sky130_fd_sc_hd__dfrtp_4
*I *1463:Y O *D sky130_fd_sc_hd__inv_2
*CAP
1 *1497:RESET_B 0.00205313
2 *1463:Y 0.00114652
3 *50:22 0.00319965
4 *1497:RESET_B *1497:CLK 0.00106187
5 *1497:RESET_B *187:111 0.000377682
6 *1497:RESET_B *188:65 4.43081e-05
7 *1497:RESET_B *218:14 6.87539e-05
8 *1497:RESET_B *218:70 0.00029316
9 *1497:RESET_B *226:27 4.21517e-05
10 *50:22 *1328:B 5.33005e-05
11 *50:22 *1339:B1 0.000135028
12 *50:22 *51:8 7.17836e-05
13 *50:22 *84:14 0.000148303
14 *50:22 *84:20 0.000847408
15 *50:22 *84:49 2.95642e-05
16 *50:22 *142:22 0.000307349
17 *50:22 *156:31 4.75152e-06
18 *50:22 *205:10 0.000145753
19 *50:22 *208:61 0.000892418
20 *1497:D *1497:RESET_B 6.26177e-05
21 *1503:D *50:22 0.000901798
22 *30:8 *1497:RESET_B 0.000262114
23 *30:8 *50:22 0.000281962
*RES
1 *1463:Y *50:22 49.778 
2 *50:22 *1497:RESET_B 40.5 
*END

*D_NET *51 0.00989666
*CONN
*I *1498:RESET_B I *D sky130_fd_sc_hd__dfrtp_2
*I *1464:Y O *D sky130_fd_sc_hd__inv_2
*CAP
1 *1498:RESET_B 3.67838e-05
2 *1464:Y 0
3 *51:8 0.00253053
4 *51:6 0.00249375
5 *51:8 *1331:A 2.87085e-05
6 *51:8 *1382:B 0.000238311
7 *51:8 *1452:D1 0.00161643
8 *51:8 *1527:A 0.000121492
9 *51:8 *1540:A 0
10 *51:8 *93:14 0.000398979
11 *51:8 *95:98 0
12 *51:8 *104:16 0
13 *51:8 *104:41 0.000791506
14 *51:8 *115:101 9.87679e-05
15 *51:8 *147:74 0.000141447
16 *51:8 *148:14 2.06112e-05
17 *51:8 *168:36 0.000488758
18 *51:8 *170:64 0.000144732
19 *51:8 *170:72 0.000142774
20 *51:8 *180:44 0.000314177
21 *51:8 *201:62 0
22 *51:8 *205:10 0.000217117
23 *50:22 *51:8 7.17836e-05
*RES
1 *1464:Y *51:6 13.8 
2 *51:6 *51:8 59.625 
3 *51:8 *1498:RESET_B 5.03571 
*END

*D_NET *52 0.0173973
*CONN
*I *1499:RESET_B I *D sky130_fd_sc_hd__dfrtp_4
*I *1465:Y O *D sky130_fd_sc_hd__inv_2
*CAP
1 *1499:RESET_B 0.000886158
2 *1465:Y 0.000493597
3 *52:24 0.00333587
4 *52:16 0.00294331
5 *1499:RESET_B *1351:B1 2.79978e-05
6 *1499:RESET_B *1409:B 1.88425e-05
7 *1499:RESET_B *1449:A2 0.000117008
8 *1499:RESET_B *174:40 0.000476684
9 *1499:RESET_B *200:63 0.00198129
10 *1499:RESET_B *200:65 9.71197e-05
11 *52:16 *1401:A 0.000190801
12 *52:16 *1401:C 0.00105281
13 *52:16 *1423:A 2.79978e-05
14 *52:16 *1494:A 0.00156876
15 *52:16 *118:10 5.403e-05
16 *52:16 *140:12 0.000525338
17 *52:24 *1336:A2 8.06456e-05
18 *52:24 *1346:D 0.000484248
19 *52:24 *1494:A 1.54142e-05
20 *52:24 *188:90 7.89309e-05
21 *52:24 *200:63 0.000101229
22 *52:24 *201:62 0.00283927
*RES
1 *1465:Y *52:16 38.6036 
2 *52:16 *52:24 44.25 
3 *52:24 *1499:RESET_B 30.0446 
*END

*D_NET *53 0.0128167
*CONN
*I *1500:RESET_B I *D sky130_fd_sc_hd__dfrtp_2
*I *1466:Y O *D sky130_fd_sc_hd__inv_2
*CAP
1 *1500:RESET_B 0.000665507
2 *1466:Y 0.000182309
3 *53:12 0.00319885
4 *53:10 0.00271565
5 *1500:RESET_B *1375:A 0.000123528
6 *1500:RESET_B *184:97 0.000257802
7 *1500:RESET_B *216:28 0.00113297
8 *1500:RESET_B *216:32 4.24142e-05
9 *1500:RESET_B *226:16 0.000121814
10 *53:10 *1421:A1 0.000320031
11 *53:10 *192:14 0.000123762
12 *53:10 *198:18 0.000556844
13 *53:12 *1339:A1 0.000181114
14 *53:12 *1339:A2 9.80173e-05
15 *53:12 *1339:B1 0.000309647
16 *53:12 *80:12 1.21258e-05
17 *53:12 *103:24 0.000178094
18 *53:12 *120:62 0.0012579
19 *53:12 *121:16 0.000385425
20 *53:12 *208:69 0.000221923
21 *53:12 *208:88 9.99644e-06
22 *53:12 *216:18 0.000677706
23 *53:12 *224:14 1.74903e-05
24 *53:12 *224:22 2.57487e-05
*RES
1 *1466:Y *53:10 25.4071 
2 *53:10 *53:12 46.9464 
3 *53:12 *1500:RESET_B 22.6161 
*END

*D_NET *54 0.0172117
*CONN
*I *1501:RESET_B I *D sky130_fd_sc_hd__dfrtp_1
*I *1467:Y O *D sky130_fd_sc_hd__inv_2
*CAP
1 *1501:RESET_B 0.000816606
2 *1467:Y 0.00105618
3 *54:24 0.00255792
4 *54:16 0.00229225
5 *54:12 0.00160712
6 *1501:RESET_B *60:20 0
7 *1501:RESET_B *86:10 0
8 *1501:RESET_B *160:35 0
9 *1501:RESET_B *183:51 3.34366e-05
10 *1501:RESET_B *183:68 0.000336301
11 *54:12 *1468:A 6.42778e-05
12 *54:12 *1511:CLK 0.000201529
13 *54:12 *1511:RESET_B 0.000135131
14 *54:12 *186:47 3.85569e-05
15 *54:12 *206:14 0.000304781
16 *54:16 *118:20 0.00214033
17 *54:16 *192:6 0.00132094
18 *54:24 *1330:B 0
19 *54:24 *1340:A 0.000349504
20 *54:24 *1371:A 5.63207e-05
21 *54:24 *1451:C 0.00011852
22 *54:24 *1492:A 7.61891e-05
23 *54:24 *1517:RESET_B 7.80428e-05
24 *54:24 *1523:D 0
25 *54:24 *55:16 0
26 *54:24 *88:14 0.000557619
27 *54:24 *109:18 7.32386e-05
28 *54:24 *130:22 6.84104e-05
29 *54:24 *148:20 0.00091428
30 *54:24 *184:82 7.58841e-05
31 *227:DIODE *1501:RESET_B 8.80625e-05
32 *1500:D *1501:RESET_B 0.000653762
33 *1511:D *54:12 0.000232399
34 *42:24 *1501:RESET_B 0.000861827
35 *43:24 *1501:RESET_B 0.000102268
*RES
1 *1467:Y *54:12 33.6036 
2 *54:12 *54:16 24.75 
3 *54:16 *54:24 47.4286 
4 *54:24 *1501:RESET_B 24.3304 
*END

*D_NET *55 0.0133973
*CONN
*I *1502:RESET_B I *D sky130_fd_sc_hd__dfrtp_1
*I *1468:Y O *D sky130_fd_sc_hd__inv_2
*CAP
1 *1502:RESET_B 0.000382804
2 *1468:Y 0.0015791
3 *55:16 0.00171303
4 *55:8 0.00290933
5 *1502:RESET_B *1439:B 3.09242e-05
6 *1502:RESET_B *105:66 0.000210856
7 *1502:RESET_B *105:107 0.000459317
8 *1502:RESET_B *175:34 0.000300757
9 *1502:RESET_B *216:42 0.000631511
10 *55:8 *1509:CLK 0.000456642
11 *55:8 *1509:RESET_B 0.00110623
12 *55:8 *1511:CLK 6.05161e-06
13 *55:8 *1527:A 0.0002845
14 *55:16 *1371:A 7.71596e-05
15 *55:16 *1441:B1 2.12521e-05
16 *55:16 *1451:C 0.000779666
17 *55:16 *62:10 0
18 *55:16 *94:10 0
19 *55:16 *175:34 0.000720648
20 *55:16 *175:47 0.000375001
21 *55:16 *180:80 0.000303559
22 *55:16 *184:27 5.35905e-05
23 *55:16 *184:38 0.00028989
24 *55:16 *184:59 3.49677e-05
25 *55:16 *213:25 0.000303517
26 *1509:D *55:8 0.000366971
27 *54:24 *55:16 0
*RES
1 *1468:Y *55:8 36.5143 
2 *55:8 *55:16 42.3393 
3 *55:16 *1502:RESET_B 16.7589 
*END

*D_NET *56 0.0044237
*CONN
*I *1503:RESET_B I *D sky130_fd_sc_hd__dfrtp_4
*I *1469:Y O *D sky130_fd_sc_hd__inv_2
*CAP
1 *1503:RESET_B 0.00133356
2 *1469:Y 0.00133356
3 *1503:RESET_B *1386:B 0
4 *1503:RESET_B *1524:RESET_B 0.00029035
5 *1503:RESET_B *1532:A 0.000367183
6 *1503:RESET_B *69:8 0.000661597
7 *1503:RESET_B *139:14 0.000314813
8 *1503:RESET_B *157:10 0.000121745
9 *1503:RESET_B *207:26 0
10 *1503:RESET_B *226:56 8.85664e-07
*RES
1 *1469:Y *1503:RESET_B 43.2286 
*END

*D_NET *57 0.0129124
*CONN
*I *1504:RESET_B I *D sky130_fd_sc_hd__dfrtp_1
*I *1470:Y O *D sky130_fd_sc_hd__inv_2
*CAP
1 *1504:RESET_B 0.000901573
2 *1470:Y 0.00177473
3 *57:10 0.00267631
4 *1504:RESET_B *1395:B 9.54798e-06
5 *1504:RESET_B *167:22 0.00132162
6 *1504:RESET_B *188:90 3.72364e-05
7 *1504:RESET_B *225:12 0.00163442
8 *57:10 *1347:A_N 9.41642e-05
9 *57:10 *1347:B 4.64895e-05
10 *57:10 *1347:D 0.000187322
11 *57:10 *1385:B1 8.26339e-05
12 *57:10 *1395:A 5.50052e-05
13 *57:10 *1429:B 2.19818e-05
14 *57:10 *1539:A 0.0012223
15 *57:10 *97:59 8.35129e-05
16 *57:10 *132:14 0.000592284
17 *57:10 *155:32 0.000135028
18 *57:10 *194:24 6.21161e-05
19 *57:10 *225:29 0.00165389
20 *1504:D *1504:RESET_B 0.000255191
21 *38:12 *1504:RESET_B 6.49952e-05
*RES
1 *1470:Y *57:10 46.425 
2 *57:10 *1504:RESET_B 33.1875 
*END

*D_NET *58 0.00705888
*CONN
*I *1505:RESET_B I *D sky130_fd_sc_hd__dfrtp_4
*I *1472:Y O *D sky130_fd_sc_hd__inv_2
*CAP
1 *1505:RESET_B 0.00196102
2 *1472:Y 0.00196102
3 *1505:RESET_B *1380:C1 0.000125731
4 *1505:RESET_B *1443:C 0.000365682
5 *1505:RESET_B *198:18 0.000189481
6 *1505:RESET_B *214:14 0.00245595
7 *1505:D *1505:RESET_B 0
*RES
1 *1472:Y *1505:RESET_B 48.4429 
*END

*D_NET *59 0.00221948
*CONN
*I *1506:RESET_B I *D sky130_fd_sc_hd__dfrtp_2
*I *1473:Y O *D sky130_fd_sc_hd__inv_2
*CAP
1 *1506:RESET_B 0.000383277
2 *1473:Y 0.000383277
3 *1506:RESET_B *1441:A1 0.000557404
4 *1506:RESET_B *1441:A2 5.33005e-05
5 *1506:RESET_B *1506:CLK 3.66822e-05
6 *1506:D *1506:RESET_B 0.000805542
*RES
1 *1473:Y *1506:RESET_B 19.2196 
*END

*D_NET *60 0.00786046
*CONN
*I *1507:RESET_B I *D sky130_fd_sc_hd__dfrtp_4
*I *1474:Y O *D sky130_fd_sc_hd__inv_2
*CAP
1 *1507:RESET_B 0.000197183
2 *1474:Y 0.0016897
3 *60:20 0.00188688
4 *1507:RESET_B *1441:A1 0.000576118
5 *1507:RESET_B *202:57 1.844e-05
6 *60:20 *1439:B 0.000304387
7 *60:20 *1454:A1 0
8 *60:20 *1456:A 0
9 *60:20 *1473:A 0
10 *60:20 *1474:A 0.000796582
11 *60:20 *86:10 0.000739344
12 *60:20 *130:10 0.000572085
13 *60:20 *169:26 0
14 *60:20 *193:14 0
15 *60:20 *208:16 0.000365766
16 *1501:RESET_B *60:20 0
17 *1506:D *1507:RESET_B 0.000713969
*RES
1 *1474:Y *60:20 47.306 
2 *60:20 *1507:RESET_B 7.04464 
*END

*D_NET *61 0.0098913
*CONN
*I *1508:RESET_B I *D sky130_fd_sc_hd__dfrtp_2
*I *1475:Y O *D sky130_fd_sc_hd__inv_2
*CAP
1 *1508:RESET_B 0.000979755
2 *1475:Y 0.00137128
3 *61:14 0.00235104
4 *1508:RESET_B *1406:C 1.95435e-05
5 *1508:RESET_B *1508:CLK 7.56943e-05
6 *61:14 *1425:C 7.6644e-05
7 *61:14 *1458:A 0.000141935
8 *61:14 *1475:A 0.00016426
9 *61:14 *95:68 5.41794e-05
10 *61:14 *110:24 0.000127508
11 *61:14 *158:8 0.00112312
12 *61:14 *174:40 0
13 *61:14 *179:24 0.000320282
14 *61:14 *181:31 0
15 *61:14 *201:45 0.000114102
16 *61:14 *206:30 0.00045007
17 *61:14 *217:26 0
18 *61:14 *226:16 0.000532498
19 *1496:D *61:14 0.000140243
20 *42:24 *1508:RESET_B 0.00101815
21 *43:16 *1508:RESET_B 0.000830994
*RES
1 *1475:Y *61:14 47.5143 
2 *61:14 *1508:RESET_B 24.1518 
*END

*D_NET *62 0.00981484
*CONN
*I *1509:RESET_B I *D sky130_fd_sc_hd__dfrtp_2
*I *1476:Y O *D sky130_fd_sc_hd__inv_2
*CAP
1 *1509:RESET_B 0.000464872
2 *1476:Y 0.00116823
3 *62:10 0.0016331
4 *1509:RESET_B *1341:A2 9.59269e-05
5 *1509:RESET_B *1509:CLK 9.69072e-05
6 *1509:RESET_B *151:8 0.00117893
7 *1509:RESET_B *207:36 0.000704675
8 *62:10 *89:14 0.00104914
9 *62:10 *94:10 0.0001543
10 *62:10 *105:130 0.00194491
11 *62:10 *184:38 0
12 *62:10 *184:59 0
13 *62:10 *203:45 3.92757e-05
14 *62:10 *213:25 0
15 *1509:D *1509:RESET_B 0.000178346
16 *55:8 *1509:RESET_B 0.00110623
17 *55:16 *62:10 0
*RES
1 *1476:Y *62:10 49.6929 
2 *62:10 *1509:RESET_B 20.5268 
*END

*D_NET *63 0.00401049
*CONN
*I *1510:RESET_B I *D sky130_fd_sc_hd__dfrtp_2
*I *1477:Y O *D sky130_fd_sc_hd__inv_2
*CAP
1 *1510:RESET_B 0.00102452
2 *1477:Y 0.00102452
3 *1510:RESET_B *1347:C 0.000196732
4 *1510:RESET_B *1364:B1 0.00017609
5 *1510:RESET_B *1386:D 0.000329603
6 *1510:RESET_B *1404:B 5.7836e-06
7 *1510:RESET_B *1435:B 0.000182266
8 *1510:RESET_B *107:20 6.94775e-05
9 *1510:RESET_B *141:43 0.000304394
10 *1510:RESET_B *142:22 1.21258e-05
11 *1510:RESET_B *165:16 0
12 *1510:RESET_B *180:156 0.000230155
13 *1510:RESET_B *205:50 0.000178527
14 *1510:RESET_B *210:91 6.46173e-05
15 *1510:D *1510:RESET_B 7.47236e-05
16 *27:12 *1510:RESET_B 0.000136951
*RES
1 *1477:Y *1510:RESET_B 40.2732 
*END

*D_NET *64 0.00328404
*CONN
*I *1511:RESET_B I *D sky130_fd_sc_hd__dfrtp_4
*I *1478:Y O *D sky130_fd_sc_hd__inv_2
*CAP
1 *1511:RESET_B 0.00121989
2 *1478:Y 0.00121989
3 *1511:RESET_B *1455:B 0.000205552
4 *1511:RESET_B *1468:A 6.28767e-05
5 *1511:RESET_B *1479:A 0
6 *1511:RESET_B *1511:CLK 2.72654e-05
7 *1511:RESET_B *1512:RESET_B 0
8 *1511:RESET_B *186:34 0
9 *1511:RESET_B *186:47 0
10 *1511:RESET_B *205:50 9.15842e-06
11 *1511:RESET_B *213:35 0.000182605
12 *22:20 *1511:RESET_B 0.000221658
13 *54:12 *1511:RESET_B 0.000135131
*RES
1 *1478:Y *1511:RESET_B 38.5411 
*END

*D_NET *65 0.00195453
*CONN
*I *1512:RESET_B I *D sky130_fd_sc_hd__dfrtp_4
*I *1479:Y O *D sky130_fd_sc_hd__inv_2
*CAP
1 *1512:RESET_B 0.000455124
2 *1479:Y 0.000455124
3 *1512:RESET_B *1455:B 4.84658e-05
4 *1512:RESET_B *1479:A 0.000579373
5 *1512:RESET_B *134:47 0.000182598
6 *1512:RESET_B *177:14 9.36593e-05
7 *1512:RESET_B *205:50 0
8 *1512:RESET_B *213:25 9.41642e-05
9 *1511:RESET_B *1512:RESET_B 0
10 *22:12 *1512:RESET_B 4.60235e-05
*RES
1 *1479:Y *1512:RESET_B 28.9696 
*END

*D_NET *66 0.0100874
*CONN
*I *1513:RESET_B I *D sky130_fd_sc_hd__dfrtp_4
*I *1480:Y O *D sky130_fd_sc_hd__inv_2
*CAP
1 *1513:RESET_B 0.000891595
2 *1480:Y 0.00216664
3 *66:14 0.00305823
4 *1513:RESET_B *1457:B 0.000199474
5 *1513:RESET_B *107:46 0.00158983
6 *1513:RESET_B *188:65 6.06437e-05
7 *1513:RESET_B *203:31 0.000273756
8 *1513:RESET_B *206:24 9.41642e-05
9 *1513:RESET_B *208:41 0.000426563
10 *66:14 *1524:CLK 0.000135028
11 *66:14 *76:36 7.74135e-05
12 *66:14 *81:14 1.21258e-05
13 *66:14 *165:16 1.73698e-05
14 *66:14 *170:72 0.00089626
15 *66:14 *188:8 3.82357e-05
16 *66:14 *200:10 0.000146991
17 *66:14 *224:53 3.06878e-06
*RES
1 *1480:Y *66:14 45.1125 
2 *66:14 *1513:RESET_B 21.2143 
*END

*D_NET *67 0.00948367
*CONN
*I *1514:RESET_B I *D sky130_fd_sc_hd__dfrtp_4
*I *1481:Y O *D sky130_fd_sc_hd__inv_2
*CAP
1 *1514:RESET_B 0.00202008
2 *1481:Y 0.00043749
3 *67:10 0.00245757
4 *1514:RESET_B *1399:A1 1.98839e-05
5 *1514:RESET_B *1399:A2 0.000276773
6 *1514:RESET_B *103:61 0.00030235
7 *1514:RESET_B *209:39 8.08911e-05
8 *1514:RESET_B *222:18 0.00189624
9 *67:10 *1455:A 0.000585688
10 *67:10 *149:14 0.00103952
11 *67:10 *179:110 0
12 *67:10 *180:31 2.1547e-05
13 *67:10 *191:41 0.00010047
14 *67:10 *220:89 7.62691e-05
15 *1514:D *1514:RESET_B 0.000168915
*RES
1 *1481:Y *67:10 32.0857 
2 *67:10 *1514:RESET_B 29.3661 
*END

*D_NET *68 0.0134274
*CONN
*I *1515:RESET_B I *D sky130_fd_sc_hd__dfrtp_1
*I *1483:Y O *D sky130_fd_sc_hd__inv_2
*CAP
1 *1515:RESET_B 0.00130449
2 *1483:Y 0.00131315
3 *68:16 0.00261764
4 *1515:RESET_B *1427:A 0.000170308
5 *1515:RESET_B *1492:A 0.000410091
6 *1515:RESET_B *1523:RESET_B 0.000663615
7 *1515:RESET_B *88:62 0.000287423
8 *1515:RESET_B *159:16 0.000989653
9 *1515:RESET_B *188:59 0
10 *1515:RESET_B *190:58 1.10856e-05
11 *1515:RESET_B *203:31 0.000362345
12 *1515:RESET_B *208:108 0.000890172
13 *1515:RESET_B *211:10 0.000407739
14 *68:16 *1346:C 0.000860028
15 *68:16 *1429:B 0.000769477
16 *68:16 *1483:A 0.000322986
17 *68:16 *88:62 0.000587602
18 *68:16 *162:26 0.000101402
19 *68:16 *190:58 5.25862e-06
20 *68:16 *201:45 5.71472e-05
21 *68:16 *202:57 0
22 *68:16 *225:29 0.000186823
23 *1521:D *68:16 0.000894462
24 *38:12 *68:16 8.0614e-05
25 *48:12 *68:16 0.000133938
*RES
1 *1483:Y *68:16 49.3536 
2 *68:16 *1515:RESET_B 42.4196 
*END

*D_NET *69 0.0111711
*CONN
*I *1516:RESET_B I *D sky130_fd_sc_hd__dfrtp_2
*I *1484:Y O *D sky130_fd_sc_hd__inv_2
*CAP
1 *1516:RESET_B 0.00109964
2 *1484:Y 0.00117498
3 *69:8 0.00227462
4 *1516:RESET_B *1354:A 0.000351032
5 *1516:RESET_B *1455:B 7.46461e-05
6 *1516:RESET_B *1507:CLK 0.000743722
7 *1516:RESET_B *106:27 9.3153e-05
8 *1516:RESET_B *158:8 0.000389104
9 *1516:RESET_B *181:58 0.000578658
10 *1516:RESET_B *186:23 7.35879e-05
11 *1516:RESET_B *186:34 0.000156669
12 *1516:RESET_B *186:47 6.1684e-05
13 *1516:RESET_B *189:95 0.00048097
14 *1516:RESET_B *206:14 4.46186e-06
15 *1516:RESET_B *206:16 0.000487181
16 *1516:RESET_B *206:24 0.00017548
17 *69:8 *147:76 0.00222458
18 *1503:RESET_B *69:8 0.000661597
19 *47:26 *1516:RESET_B 6.53397e-05
*RES
1 *1484:Y *69:8 40.2107 
2 *69:8 *1516:RESET_B 36.1964 
*END

*D_NET *70 0.00838019
*CONN
*I *1517:RESET_B I *D sky130_fd_sc_hd__dfrtp_1
*I *1485:Y O *D sky130_fd_sc_hd__inv_2
*CAP
1 *1517:RESET_B 0.000785992
2 *1485:Y 0.000622074
3 *70:18 0.00140807
4 *1517:RESET_B *1340:A 0.000276588
5 *1517:RESET_B *1434:A 0.000134421
6 *1517:RESET_B *1434:B 1.94945e-05
7 *1517:RESET_B *1451:C 3.9845e-05
8 *1517:RESET_B *1517:CLK 1.12166e-05
9 *1517:RESET_B *77:12 0.0012903
10 *1517:RESET_B *95:53 0
11 *1517:RESET_B *162:26 5.51132e-05
12 *1517:RESET_B *163:12 0.000185436
13 *70:18 *1459:B1_N 0.000196762
14 *70:18 *87:51 0.00011765
15 *70:18 *181:75 0.000312698
16 *70:18 *188:59 6.66715e-05
17 *70:18 *199:46 0.000510824
18 *70:18 *203:31 0.000423483
19 *70:18 *210:62 0.000512747
20 *70:18 *211:10 0.000156375
21 *1433:C1 *1517:RESET_B 0.000653025
22 *48:20 *70:18 0.000523366
23 *54:24 *1517:RESET_B 7.80428e-05
*RES
1 *1485:Y *70:18 46.5679 
2 *70:18 *1517:RESET_B 39.7946 
*END

*D_NET *71 0.00996408
*CONN
*I *1518:RESET_B I *D sky130_fd_sc_hd__dfrtp_2
*I *1486:Y O *D sky130_fd_sc_hd__inv_2
*CAP
1 *1518:RESET_B 0.000505726
2 *1486:Y 0.00280196
3 *71:8 0.00330769
4 *1518:RESET_B *109:44 0.000652871
5 *71:8 *165:45 0.00172148
6 *71:8 *181:151 0.000112547
7 *71:8 *193:22 0.000378138
8 *1505:D *1518:RESET_B 0.00034864
9 *35:12 *1518:RESET_B 0.000135028
*RES
1 *1486:Y *71:8 49.2464 
2 *71:8 *1518:RESET_B 16.7232 
*END

*D_NET *72 0.0124605
*CONN
*I *1519:RESET_B I *D sky130_fd_sc_hd__dfrtp_4
*I *1487:Y O *D sky130_fd_sc_hd__inv_2
*CAP
1 *1519:RESET_B 0.0044523
2 *1487:Y 0.0044523
3 *1519:RESET_B *1342:C 0.000222256
4 *1519:RESET_B *1445:B 0.00012288
5 *1519:RESET_B *1458:A 0.000128776
6 *1519:RESET_B *1464:A 0.000359266
7 *1519:RESET_B *100:14 1.94879e-05
8 *1519:RESET_B *104:16 0.00033998
9 *1519:RESET_B *112:18 0.000286268
10 *1519:RESET_B *131:26 0.000490532
11 *1519:RESET_B *215:8 8.6229e-06
12 *1496:D *1519:RESET_B 0.00012546
13 *39:22 *1519:RESET_B 0.00145233
*RES
1 *1487:Y *1519:RESET_B 42.8424 
*END

*D_NET *73 0.00254396
*CONN
*I *1520:RESET_B I *D sky130_fd_sc_hd__dfrtp_4
*I *1488:Y O *D sky130_fd_sc_hd__inv_2
*CAP
1 *1520:RESET_B 0.00065536
2 *1488:Y 0.00065536
3 *1520:RESET_B *1327:A 0
4 *1520:RESET_B *106:33 0.00123324
5 *1520:RESET_B *192:14 0
*RES
1 *1488:Y *1520:RESET_B 34.2107 
*END

*D_NET *74 0.0135085
*CONN
*I *1521:RESET_B I *D sky130_fd_sc_hd__dfrtp_1
*I *1489:Y O *D sky130_fd_sc_hd__inv_2
*CAP
1 *1521:RESET_B 0.00198879
2 *1489:Y 0.000941707
3 *74:16 0.00293049
4 *1521:RESET_B *1376:B 2.59355e-05
5 *1521:RESET_B *1383:C 0.000715193
6 *1521:RESET_B *1518:CLK 0.000227539
7 *1521:RESET_B *122:10 0.00111332
8 *1521:RESET_B *179:10 0.000135028
9 *1521:RESET_B *179:110 0.000544974
10 *1521:RESET_B *191:28 3.90159e-05
11 *1521:RESET_B *191:30 0.000769854
12 *1521:RESET_B *191:41 0.000804837
13 *74:16 *1380:C1 0.000911658
14 *74:16 *1443:C 0.00128897
15 *74:16 *1489:A 0.000186767
16 *74:16 *198:18 0.00019379
17 *1443:A *74:16 0.000349104
18 *35:12 *1521:RESET_B 0.000295671
19 *35:12 *74:16 4.58194e-05
*RES
1 *1489:Y *74:16 42.8893 
2 *74:16 *1521:RESET_B 44.0446 
*END

*D_NET *75 0.00146481
*CONN
*I *1522:RESET_B I *D sky130_fd_sc_hd__dfrtp_4
*I *1490:Y O *D sky130_fd_sc_hd__inv_2
*CAP
1 *1522:RESET_B 0.000357078
2 *1490:Y 0.000357078
3 *1522:RESET_B *1335:A 0.000500497
4 *1522:RESET_B *82:18 9.99853e-05
5 *1522:RESET_B *181:31 0.000150169
*RES
1 *1490:Y *1522:RESET_B 15.9339 
*END

*D_NET *76 0.019998
*CONN
*I *1523:RESET_B I *D sky130_fd_sc_hd__dfrtp_4
*I *1491:Y O *D sky130_fd_sc_hd__inv_2
*CAP
1 *1523:RESET_B 0.00154799
2 *1491:Y 0.00112373
3 *76:50 0.00372418
4 *76:36 0.00333493
5 *76:20 0.00228247
6 *1523:RESET_B *1492:A 0.000742713
7 *1523:RESET_B *1523:D 0.00056101
8 *1523:RESET_B *181:92 8.43386e-05
9 *1523:RESET_B *211:10 0.000255689
10 *76:20 *1347:A_N 0.000694592
11 *76:20 *1539:A 5.49489e-05
12 *76:20 *133:10 0
13 *76:20 *165:16 2.93959e-05
14 *76:20 *165:26 7.48679e-06
15 *76:20 *170:72 0.000135028
16 *76:20 *179:39 0.000187391
17 *76:20 *200:10 0.000835343
18 *76:36 *1347:C 0
19 *76:36 *1364:A2 6.69572e-05
20 *76:36 *1364:B1 0
21 *76:36 *1377:B 9.58689e-05
22 *76:36 *1415:A 4.46426e-05
23 *76:36 *1435:B 0
24 *76:36 *133:10 0
25 *76:36 *165:16 0.00136152
26 *76:50 *1455:A 0.000207459
27 *76:50 *139:14 0.00027946
28 *76:50 *181:75 3.61717e-05
29 *76:50 *181:92 0.0001635
30 *76:50 *187:158 0.000464068
31 *76:50 *188:31 0.000139682
32 *76:50 *207:26 0
33 *76:50 *207:79 0.000155852
34 *1515:D *1523:RESET_B 0.00011503
35 *1515:RESET_B *1523:RESET_B 0.000663615
36 *22:20 *76:50 2.37838e-05
37 *47:12 *1523:RESET_B 5.49995e-05
38 *47:12 *76:50 4.76256e-05
39 *47:26 *1523:RESET_B 0.000399156
40 *66:14 *76:36 7.74135e-05
*RES
1 *1491:Y *76:20 47.1393 
2 *76:20 *76:36 37.8214 
3 *76:36 *76:50 46.0714 
4 *76:50 *1523:RESET_B 35.0089 
*END

*D_NET *77 0.0115615
*CONN
*I *1524:RESET_B I *D sky130_fd_sc_hd__dfrtp_4
*I *1492:Y O *D sky130_fd_sc_hd__inv_2
*CAP
1 *1524:RESET_B 0.000909902
2 *1492:Y 0.0009942
3 *77:12 0.0019041
4 *1524:RESET_B *1455:A 0
5 *1524:RESET_B *141:43 0.000145161
6 *1524:RESET_B *149:14 0.000426337
7 *1524:RESET_B *157:10 0.00119658
8 *1524:RESET_B *207:79 0.000457368
9 *77:12 *93:6 0.0026882
10 *77:12 *163:12 0.000308828
11 *77:12 *179:131 0.000596615
12 *77:12 *207:16 0.000176475
13 *77:12 *211:61 0.000177055
14 *1503:RESET_B *1524:RESET_B 0.00029035
15 *1517:RESET_B *77:12 0.0012903
*RES
1 *1492:Y *77:12 48.9786 
2 *77:12 *1524:RESET_B 28.6071 
*END

*D_NET *78 0.00690056
*CONN
*I *1525:RESET_B I *D sky130_fd_sc_hd__dfrtp_4
*I *1493:Y O *D sky130_fd_sc_hd__inv_2
*CAP
1 *1525:RESET_B 4.8152e-05
2 *1493:Y 0.00108759
3 *78:12 0.00113574
4 *1525:RESET_B *170:64 5.98888e-05
5 *1525:RESET_B *216:28 0.000175995
6 *78:12 *1428:A 0.00146169
7 *78:12 *1446:C 6.30931e-05
8 *78:12 *85:10 5.25862e-06
9 *78:12 *85:22 0.000651332
10 *78:12 *88:74 0.00106392
11 *78:12 *131:26 0.000125449
12 *78:12 *144:14 0.000690936
13 *78:12 *189:26 0.000262462
14 *78:12 *189:87 2.85805e-05
15 *49:12 *78:12 4.04683e-05
*RES
1 *1493:Y *78:12 49.4786 
2 *78:12 *1525:RESET_B 1.70536 
*END

*D_NET *79 0.0171631
*CONN
*I *1526:RESET_B I *D sky130_fd_sc_hd__dfrtp_4
*I *1494:Y O *D sky130_fd_sc_hd__inv_2
*CAP
1 *1526:RESET_B 0.00350478
2 *1494:Y 0.00192371
3 *79:8 0.00542849
4 *1526:RESET_B *1439:A 0.000364133
5 *1526:RESET_B *1529:A 1.36734e-05
6 *1526:RESET_B *86:10 0
7 *1526:RESET_B *103:24 0.0019943
8 *1526:RESET_B *109:38 0.00140352
9 *1526:RESET_B *124:30 0.00149256
10 *1526:RESET_B *126:28 4.94017e-05
11 *1526:RESET_B *174:24 0.000142051
12 *1526:RESET_B *182:12 0.000365943
13 *1526:RESET_B *208:16 0
14 *79:8 *1331:B 0.000185382
15 *79:8 *1518:CLK 0.000206267
16 *79:8 *109:44 0
17 *79:8 *115:101 0
18 *79:8 *117:26 0
19 *79:8 *154:12 0
20 *1505:D *79:8 0
21 *1513:D *1526:RESET_B 8.88909e-05
*RES
1 *1494:Y *79:8 48.0768 
2 *79:8 *1526:RESET_B 22.1958 
*END

*D_NET *80 0.0107147
*CONN
*I *1523:D I *D sky130_fd_sc_hd__dfrtp_4
*I *1339:Y O *D sky130_fd_sc_hd__a21oi_1
*CAP
1 *1523:D 0.000937731
2 *1339:Y 0.000948155
3 *80:12 0.00188589
4 *1523:D *1340:A 7.70756e-05
5 *1523:D *1456:A 0.00103764
6 *1523:D *1492:A 0.000146254
7 *1523:D *1515:CLK 0.000350569
8 *1523:D *86:10 0
9 *1523:D *88:14 3.14008e-05
10 *1523:D *193:14 0.000484544
11 *80:12 *1339:B1 0.000107504
12 *80:12 *1369:A 9.41642e-05
13 *80:12 *1442:A 0.000196522
14 *80:12 *1456:A 5.49489e-05
15 *80:12 *117:20 7.12638e-05
16 *80:12 *120:62 0.000591726
17 *80:12 *121:16 2.68206e-05
18 *80:12 *187:34 0.000119303
19 *80:12 *190:109 0.000221634
20 *80:12 *224:22 0.00264968
21 *1515:D *1523:D 0.000108744
22 *1523:RESET_B *1523:D 0.00056101
23 *53:12 *80:12 1.21258e-05
24 *54:24 *1523:D 0
*RES
1 *1339:Y *80:12 43.2286 
2 *80:12 *1523:D 38.2107 
*END

*D_NET *81 0.00577856
*CONN
*I *1524:D I *D sky130_fd_sc_hd__dfrtp_4
*I *1337:Y O *D sky130_fd_sc_hd__nor2_1
*CAP
1 *1524:D 0
2 *1337:Y 0.00127979
3 *81:14 0.00127979
4 *81:14 *1337:A 0.000248038
5 *81:14 *1508:CLK 0.00091157
6 *81:14 *1524:CLK 6.05161e-06
7 *81:14 *88:74 0.000695744
8 *81:14 *97:10 0.000218098
9 *81:14 *97:12 0.000144394
10 *81:14 *131:26 1.94879e-05
11 *81:14 *157:10 7.49166e-06
12 *81:14 *157:16 0
13 *81:14 *167:22 0.000514111
14 *81:14 *173:12 0.000202775
15 *81:14 *174:24 0.000136517
16 *81:14 *224:53 0.00010258
17 *66:14 *81:14 1.21258e-05
*RES
1 *1337:Y *81:14 47.3893 
2 *81:14 *1524:D 9.3 
*END

*D_NET *82 0.00555537
*CONN
*I *1525:D I *D sky130_fd_sc_hd__dfrtp_4
*I *1335:X O *D sky130_fd_sc_hd__clkbuf_1
*CAP
1 *1525:D 0
2 *1335:X 0.0015954
3 *82:18 0.0015954
4 *82:18 *126:28 2.05695e-05
5 *82:18 *156:10 0.00012249
6 *82:18 *156:31 0.00158812
7 *82:18 *168:36 4.3304e-06
8 *82:18 *170:64 0.00018663
9 *82:18 *181:31 2.36643e-05
10 *82:18 *181:44 0.000281899
11 *82:18 *209:39 3.68884e-05
12 *82:18 *212:12 0
13 *1522:RESET_B *82:18 9.99853e-05
*RES
1 *1335:X *82:18 48.3179 
2 *82:18 *1525:D 9.3 
*END

*D_NET *83 0.00693769
*CONN
*I *1526:D I *D sky130_fd_sc_hd__dfrtp_4
*I *1329:Y O *D sky130_fd_sc_hd__xnor2_1
*CAP
1 *1526:D 0.00223347
2 *1329:Y 0.00223347
3 *1526:D *1526:CLK 4.25652e-05
4 *1526:D *190:48 3.11406e-05
5 *1526:D *190:58 0.00230941
6 *1526:D *190:73 8.76257e-05
*RES
1 *1329:Y *1526:D 47.4929 
*END

*D_NET *84 0.0293927
*CONN
*I *1337:A I *D sky130_fd_sc_hd__nor2_1
*I *1333:B1 I *D sky130_fd_sc_hd__o2bb2a_1
*I *1328:B I *D sky130_fd_sc_hd__nand2_1
*I *1327:X O *D sky130_fd_sc_hd__and3_2
*CAP
1 *1337:A 0.00104288
2 *1333:B1 0.000903579
3 *1328:B 6.10052e-05
4 *1327:X 0.000873143
5 *84:80 0.00132064
6 *84:49 0.00193064
7 *84:20 0.00148835
8 *84:14 0.00150554
9 *84:12 0.00170063
10 *1328:B *1339:B1 0.000112391
11 *1328:B *187:128 0.000144581
12 *1333:B1 *1333:A2_N 2.79421e-05
13 *1333:B1 *1333:B2 7.16452e-05
14 *1333:B1 *1434:B 0
15 *1333:B1 *1456:A 5.7836e-06
16 *1333:B1 *94:10 2.09826e-05
17 *1333:B1 *105:130 1.94879e-05
18 *1333:B1 *150:30 7.69776e-06
19 *1333:B1 *219:14 0.000218386
20 *1337:A *1508:CLK 0.000962508
21 *1337:A *1532:A 1.38495e-05
22 *1337:A *97:10 0.000210606
23 *1337:A *97:12 0.000186671
24 *1337:A *115:132 2.90164e-05
25 *1337:A *149:35 0.00038734
26 *1337:A *167:22 0.00038734
27 *1337:A *185:16 0.000294274
28 *1337:A *224:53 0.000361442
29 *1337:A *224:59 0.00169187
30 *84:12 *1327:B 0.00129739
31 *84:12 *1364:A3 0.000192855
32 *84:12 *1422:D 5.83304e-05
33 *84:12 *1488:A 0.000501676
34 *84:12 *133:10 0.000404319
35 *84:12 *206:69 0.000215049
36 *84:12 *207:81 0.000176226
37 *84:14 *141:43 0.000668597
38 *84:14 *142:22 0.00059828
39 *84:14 *207:100 5.52302e-05
40 *84:20 *141:43 9.41642e-05
41 *84:20 *187:128 0.000584482
42 *84:49 *1333:B2 0.00170113
43 *84:49 *1357:A 0.00012401
44 *84:49 *1400:B 5.74499e-06
45 *84:49 *1424:A 4.61703e-05
46 *84:49 *1427:B 9.95006e-05
47 *84:49 *1455:B 3.43708e-05
48 *84:49 *1459:A1 1.39726e-05
49 *84:49 *1459:A2 0.00161737
50 *84:49 *108:18 0
51 *84:49 *156:31 0.000139928
52 *84:49 *198:16 0.000219711
53 *84:49 *199:46 0.00044154
54 *84:49 *210:62 0.000189478
55 *84:49 *211:27 7.32272e-05
56 *84:80 *1455:A 0.000490373
57 *84:80 *149:14 0.000490373
58 *84:80 *180:58 0.000389741
59 *84:80 *216:28 0.000388036
60 *1394:A *84:12 4.22135e-06
61 *22:20 *84:49 0.000302719
62 *47:95 *84:12 0.000467619
63 *50:22 *1328:B 5.33005e-05
64 *50:22 *84:14 0.000148303
65 *50:22 *84:20 0.000847408
66 *50:22 *84:49 2.95642e-05
67 *81:14 *1337:A 0.000248038
*RES
1 *1327:X *84:12 47.175 
2 *84:12 *84:14 16.1429 
3 *84:14 *84:20 10.5357 
4 *84:20 *1328:B 11.8446 
5 *84:20 *84:49 49.2679 
6 *84:49 *1333:B1 29.0018 
7 *84:14 *84:80 23.8214 
8 *84:80 *1337:A 47.1929 
*END

*D_NET *85 0.0166503
*CONN
*I *1329:B I *D sky130_fd_sc_hd__xnor2_1
*I *1334:A I *D sky130_fd_sc_hd__and2_1
*I *1328:Y O *D sky130_fd_sc_hd__nand2_1
*CAP
1 *1329:B 0.00048758
2 *1334:A 0.000751881
3 *1328:Y 0.000510492
4 *85:22 0.00170258
5 *85:10 0.00194877
6 *1329:B *189:26 0.000353909
7 *1329:B *190:58 0.000770924
8 *1329:B *190:73 0.000114577
9 *1329:B *221:37 0.00104666
10 *1334:A *1334:B 9.83388e-05
11 *1334:A *1352:B1_N 8.57023e-05
12 *1334:A *129:16 0.00212637
13 *1334:A *217:26 0.000601223
14 *85:10 *1428:A 2.16898e-05
15 *85:10 *87:24 6.52982e-05
16 *85:10 *87:51 9.78541e-05
17 *85:10 *121:16 0.00033114
18 *85:10 *187:128 9.60939e-05
19 *85:10 *189:26 0.000520885
20 *85:10 *189:87 0.000500922
21 *85:10 *203:31 0.000163059
22 *85:22 *1428:A 1.89583e-05
23 *85:22 *1446:B 0
24 *85:22 *1446:C 2.64888e-05
25 *85:22 *124:30 0.00011266
26 *85:22 *131:26 0.000256441
27 *85:22 *172:14 5.94628e-05
28 *85:22 *189:28 0.000767921
29 *85:22 *189:32 0.00032507
30 *85:22 *203:31 0.00030578
31 *85:22 *217:10 5.84267e-05
32 *22:20 *85:10 9.78828e-05
33 *23:12 *85:22 0.00156862
34 *78:12 *85:10 5.25862e-06
35 *78:12 *85:22 0.000651332
*RES
1 *1328:Y *85:10 28.5321 
2 *85:10 *85:22 38.779 
3 *85:22 *1334:A 29.9607 
4 *85:10 *1329:B 30.3536 
*END

*D_NET *86 0.0269903
*CONN
*I *1454:B1 I *D sky130_fd_sc_hd__a21oi_1
*I *1331:B I *D sky130_fd_sc_hd__nand2_2
*I *1330:Y O *D sky130_fd_sc_hd__nor2_2
*CAP
1 *1454:B1 0.000422589
2 *1331:B 0.00514432
3 *1330:Y 0.00142908
4 *86:32 0.00613505
5 *86:10 0.00284241
6 *1331:B *1443:B 0.00188201
7 *1331:B *1527:A 2.01997e-05
8 *1331:B *109:44 0
9 *1331:B *110:24 0.000271078
10 *1331:B *200:30 9.00813e-05
11 *1454:B1 *1383:A 2.42516e-05
12 *1454:B1 *1454:A1 0.000146213
13 *1454:B1 *105:70 0.000602226
14 *1454:B1 *191:28 0.000267674
15 *1454:B1 *194:12 6.20519e-05
16 *1454:B1 *223:25 0.000768637
17 *86:10 *1330:A 0
18 *86:10 *1330:B 5.48781e-05
19 *86:10 *1340:A 0
20 *86:10 *1365:C 5.52302e-05
21 *86:10 *1433:A2 0.00200479
22 *86:10 *1456:A 0
23 *86:10 *95:53 0
24 *86:10 *150:30 0.000640123
25 *86:10 *160:35 0.000204067
26 *86:32 *1429:C 0.000327053
27 *86:32 *95:36 0.000140579
28 *86:32 *103:61 7.82431e-05
29 *86:32 *127:12 0.000874432
30 *86:32 *160:35 0.000691401
31 *86:32 *168:24 0.000132054
32 *86:32 *169:26 0.000274119
33 *86:32 *183:51 0.000109035
34 *86:32 *183:68 0.000197984
35 *86:32 *209:39 0.000118658
36 *1501:RESET_B *86:10 0
37 *1502:D *86:32 0
38 *1505:D *1331:B 5.50395e-05
39 *1513:D *86:10 0
40 *1513:D *86:32 0
41 *1523:D *86:10 0
42 *1526:RESET_B *86:10 0
43 *60:20 *86:10 0.000739344
44 *79:8 *1331:B 0.000185382
*RES
1 *1330:Y *86:10 49.0679 
2 *86:10 *86:32 40.254 
3 *86:32 *1331:B 32.1767 
4 *86:10 *1454:B1 26.675 
*END

*D_NET *87 0.0224908
*CONN
*I *1459:B1_N I *D sky130_fd_sc_hd__a21boi_2
*I *1338:A2 I *D sky130_fd_sc_hd__a21oi_1
*I *1332:B I *D sky130_fd_sc_hd__nor2_1
*I *1331:Y O *D sky130_fd_sc_hd__nand2_2
*CAP
1 *1459:B1_N 0.000286107
2 *1338:A2 3.26257e-05
3 *1332:B 0.00112458
4 *1331:Y 0.00378719
5 *87:51 0.00072679
6 *87:24 0.00251001
7 *87:18 0.00476456
8 *1332:B *1530:A 9.96487e-05
9 *1332:B *88:62 0.000464549
10 *1332:B *107:40 5.33005e-05
11 *1332:B *109:18 7.20217e-06
12 *1332:B *130:22 0.000305986
13 *1332:B *184:97 4.41129e-05
14 *1332:B *184:99 8.6229e-06
15 *1332:B *187:34 2.2355e-05
16 *1332:B *199:56 9.8126e-05
17 *1338:A2 *1338:A1 5.33005e-05
18 *1338:A2 *187:111 1.98839e-05
19 *1338:A2 *189:95 9.41642e-05
20 *1459:B1_N *1357:A 0.000153331
21 *1459:B1_N *181:75 0.000169989
22 *1459:B1_N *189:87 8.6229e-06
23 *1459:B1_N *210:62 0.000212733
24 *87:18 *1443:B 0.000527715
25 *87:18 *105:20 0.00023538
26 *87:18 *109:44 2.11419e-05
27 *87:18 *139:26 1.25084e-05
28 *87:24 *1336:A1 9.62851e-05
29 *87:24 *1446:B 0.00156239
30 *87:24 *97:59 0.000393636
31 *87:24 *107:40 7.58841e-05
32 *87:24 *109:38 0.000159279
33 *87:24 *131:26 0.000182244
34 *87:24 *174:40 0.00014444
35 *87:24 *181:58 0.000468011
36 *87:24 *203:31 0.000112723
37 *87:24 *206:30 2.28543e-05
38 *87:51 *107:40 2.22419e-05
39 *87:51 *121:16 0.0003328
40 *87:51 *181:58 0.000183536
41 *87:51 *181:75 1.7606e-05
42 *87:51 *189:87 0.000230616
43 *1528:A *87:24 0.000374764
44 *22:20 *1459:B1_N 4.62551e-05
45 *29:30 *87:18 0.00141796
46 *33:16 *1332:B 0.00032519
47 *70:18 *1459:B1_N 0.000196762
48 *70:18 *87:51 0.00011765
49 *85:10 *87:24 6.52982e-05
50 *85:10 *87:51 9.78541e-05
*RES
1 *1331:Y *87:18 28.5672 
2 *87:18 *87:24 28.8661 
3 *87:24 *1332:B 47.8 
4 *87:24 *87:51 10.4464 
5 *87:51 *1338:A2 14.7464 
6 *87:51 *1459:B1_N 21.2107 
*END

*D_NET *88 0.0195711
*CONN
*I *1452:B1 I *D sky130_fd_sc_hd__a2111o_2
*I *1453:A I *D sky130_fd_sc_hd__nor2_1
*I *1333:A2_N I *D sky130_fd_sc_hd__o2bb2a_1
*I *1332:Y O *D sky130_fd_sc_hd__nor2_1
*CAP
1 *1452:B1 0
2 *1453:A 2.32277e-05
3 *1333:A2_N 0.000724013
4 *1332:Y 3.26175e-05
5 *88:74 0.0010836
6 *88:62 0.00224877
7 *88:14 0.00140841
8 *88:6 0.00185896
9 *1333:A2_N *1333:B2 3.80953e-06
10 *1333:A2_N *1453:B 0.000219711
11 *1333:A2_N *94:10 0.000436956
12 *1333:A2_N *176:12 0.000237511
13 *1453:A *1453:B 4.27935e-05
14 *88:6 *109:18 8.42294e-05
15 *88:6 *130:22 2.10824e-05
16 *88:14 *109:18 0.000647249
17 *88:14 *130:22 0.00012417
18 *88:14 *148:20 6.94441e-06
19 *88:14 *184:82 7.58841e-05
20 *88:14 *193:14 0.000900502
21 *88:62 *1429:B 0.000240484
22 *88:62 *1516:CLK 0.000464549
23 *88:62 *1530:A 0
24 *88:62 *95:36 9.06546e-05
25 *88:62 *153:10 1.90936e-05
26 *88:62 *162:26 0.000112745
27 *88:62 *187:44 4.06782e-05
28 *88:62 *203:31 0.000169605
29 *88:62 *208:16 4.93272e-05
30 *88:62 *210:56 2.06112e-05
31 *88:62 *220:42 0
32 *88:74 *1447:A 0.000642093
33 *88:74 *97:12 9.03222e-06
34 *88:74 *115:22 0.000175892
35 *88:74 *144:14 7.48087e-05
36 *88:74 *153:28 0.00063889
37 *88:74 *156:31 9.41642e-05
38 *88:74 *157:16 5.88811e-06
39 *88:74 *167:22 0.000519489
40 *88:74 *173:12 0.000341558
41 *88:74 *174:24 0.000152711
42 *88:74 *176:43 6.595e-05
43 *88:74 *189:26 0.000311121
44 *1332:B *88:62 0.000464549
45 *1333:B1 *1333:A2_N 2.79421e-05
46 *1507:D *88:62 0.000418751
47 *1515:RESET_B *88:62 0.000287423
48 *1523:D *88:14 3.14008e-05
49 *33:16 *88:62 5.96516e-05
50 *48:12 *88:62 4.42685e-05
51 *48:20 *88:62 0.000266994
52 *49:12 *88:74 0.000645479
53 *54:24 *88:14 0.000557619
54 *68:16 *88:62 0.000587602
55 *78:12 *88:74 0.00106392
56 *81:14 *88:74 0.000695744
*RES
1 *1332:Y *88:6 10.2464 
2 *88:6 *88:14 28.1607 
3 *88:14 *1333:A2_N 32.3536 
4 *88:14 *1453:A 9.83571 
5 *88:6 *88:62 48.9786 
6 *88:62 *88:74 44.2679 
7 *88:74 *1452:B1 9.3 
*END

*D_NET *89 0.0109988
*CONN
*I *1334:B I *D sky130_fd_sc_hd__and2_1
*I *1333:X O *D sky130_fd_sc_hd__o2bb2a_1
*CAP
1 *1334:B 0.000289888
2 *1333:X 8.40274e-05
3 *89:14 0.00168759
4 *89:12 0.00148173
5 *1334:B *1397:A 0.000475677
6 *1334:B *129:16 0.000374229
7 *1334:B *129:20 6.05161e-06
8 *89:12 *1333:A1_N 5.52302e-05
9 *89:12 *1333:B2 2.89114e-05
10 *89:14 *105:130 8.97698e-05
11 *89:14 *125:16 0.000663883
12 *89:14 *130:10 0.0024762
13 *89:14 *169:26 0.000364914
14 *89:14 *184:27 5.88424e-05
15 *89:14 *184:38 0.000187969
16 *89:14 *215:35 0.00152643
17 *1334:A *1334:B 9.83388e-05
18 *62:10 *89:14 0.00104914
*RES
1 *1333:X *89:12 15.3 
2 *89:12 *89:14 48.3929 
3 *89:14 *1334:B 21.7286 
*END

*D_NET *90 0.00558341
*CONN
*I *1335:A I *D sky130_fd_sc_hd__clkbuf_1
*I *1334:X O *D sky130_fd_sc_hd__and2_1
*CAP
1 *1335:A 0.000814134
2 *1334:X 0.00049986
3 *90:22 0.00131399
4 *1335:A *1522:CLK 9.66977e-05
5 *1335:A *181:31 0.000234291
6 *1335:A *194:20 0.000103397
7 *1335:A *199:56 0.000361487
8 *1335:A *226:6 5.33005e-05
9 *1335:A *226:16 0.000175892
10 *90:22 *1351:B1 0.000435263
11 *90:22 *127:12 0.000546843
12 *90:22 *135:16 6.87979e-05
13 *90:22 *187:68 0
14 *90:22 *194:20 0.000183477
15 *90:22 *199:56 1.51489e-05
16 *90:22 *199:62 0.000151807
17 *1522:D *1335:A 2.85234e-05
18 *1522:RESET_B *1335:A 0.000500497
*RES
1 *1334:X *90:22 39.6036 
2 *90:22 *1335:A 25.9964 
*END

*D_NET *91 0.00667178
*CONN
*I *1337:B I *D sky130_fd_sc_hd__nor2_1
*I *1336:Y O *D sky130_fd_sc_hd__a21oi_1
*CAP
1 *1337:B 0.000723702
2 *1336:Y 0.00092895
3 *91:16 0.00165265
4 *1337:B *1398:A 0
5 *1337:B *1471:A 0
6 *1337:B *143:20 0.000121573
7 *1337:B *149:35 5.49544e-05
8 *1337:B *156:10 0.00110429
9 *1337:B *167:22 0.000136682
10 *1337:B *176:43 4.10926e-05
11 *1337:B *189:28 0
12 *1337:B *189:32 0
13 *91:16 *1349:A3 0.00015217
14 *91:16 *1471:A 1.02504e-05
15 *91:16 *1475:A 5.49544e-05
16 *91:16 *102:16 0.000267729
17 *91:16 *143:20 0
18 *91:16 *174:40 0.000390641
19 *91:16 *180:25 0.000357856
20 *91:16 *200:50 7.58841e-05
21 *91:16 *201:62 0.000397901
22 *31:14 *91:16 1.50904e-05
23 *38:12 *91:16 0.000185403
*RES
1 *1336:Y *91:16 39.3714 
2 *91:16 *1337:B 29.8536 
*END

*D_NET *92 0.00287783
*CONN
*I *1339:B1 I *D sky130_fd_sc_hd__a21oi_1
*I *1338:Y O *D sky130_fd_sc_hd__a21oi_1
*CAP
1 *1339:B1 0.000489847
2 *1338:Y 0.000489847
3 *1339:B1 *1328:A 4.43256e-05
4 *1339:B1 *103:24 3.29159e-05
5 *1339:B1 *120:62 0.000107492
6 *1339:B1 *156:31 0.000406944
7 *1339:B1 *180:58 0
8 *1339:B1 *180:125 0
9 *1339:B1 *187:128 2.06152e-05
10 *1339:B1 *189:95 5.71472e-05
11 *1328:B *1339:B1 0.000112391
12 *30:8 *1339:B1 0.000564131
13 *50:22 *1339:B1 0.000135028
14 *53:12 *1339:B1 0.000309647
15 *80:12 *1339:B1 0.000107504
*RES
1 *1338:Y *1339:B1 41.6536 
*END

*D_NET *93 0.0192386
*CONN
*I *1448:A1 I *D sky130_fd_sc_hd__a21o_1
*I *1352:A1 I *D sky130_fd_sc_hd__a21bo_2
*I *1340:Y O *D sky130_fd_sc_hd__inv_2
*CAP
1 *1448:A1 7.70325e-05
2 *1352:A1 0.000768529
3 *1340:Y 0.00277029
4 *93:14 0.00169988
5 *93:6 0.00362461
6 *1352:A1 *1331:A 0.000125717
7 *1352:A1 *1452:A1 4.66511e-05
8 *1352:A1 *1452:A2 0.0018268
9 *1352:A1 *104:41 0.00202951
10 *1352:A1 *168:36 5.79792e-05
11 *1352:A1 *188:21 0.000149607
12 *1448:A1 *174:24 9.41642e-05
13 *93:6 *179:131 0.000942715
14 *93:6 *211:61 4.81126e-05
15 *93:14 *104:41 5.51716e-05
16 *93:14 *147:74 0.000788732
17 *93:14 *170:64 0.000123543
18 *93:14 *188:21 0.000901786
19 *93:14 *206:49 2.06112e-05
20 *51:8 *93:14 0.000398979
21 *77:12 *93:6 0.0026882
*RES
1 *1340:Y *93:6 47.6214 
2 *93:6 *93:14 28.6607 
3 *93:14 *1352:A1 42.1571 
4 *93:14 *1448:A1 14.7464 
*END

*D_NET *94 0.0179989
*CONN
*I *1351:A1 I *D sky130_fd_sc_hd__o211ai_4
*I *1341:X O *D sky130_fd_sc_hd__a21o_1
*CAP
1 *1351:A1 0
2 *1341:X 0.00115139
3 *94:22 0.00126441
4 *94:10 0.00302357
5 *94:8 0.00291055
6 *94:8 *1341:A2 0.00056298
7 *94:8 *1341:B1 1.92905e-05
8 *94:8 *208:123 3.79877e-06
9 *94:10 *1442:C 0.000486419
10 *94:10 *1451:B 0.000199626
11 *94:10 *1454:A1 1.61405e-05
12 *94:10 *1474:A 0.000955689
13 *94:10 *105:130 0.000656685
14 *94:10 *130:10 0.000185442
15 *94:10 *146:20 0.000108996
16 *94:10 *166:10 0
17 *94:10 *168:55 0.00018796
18 *94:10 *176:12 8.21945e-05
19 *94:10 *187:22 0.00032859
20 *94:10 *194:12 0.00064609
21 *94:10 *196:14 0.000631824
22 *94:10 *218:24 0.000236489
23 *94:22 *112:18 0.000235264
24 *94:22 *134:73 0.000137417
25 *94:22 *143:8 0.000441021
26 *94:22 *144:26 0.000798532
27 *94:22 *210:33 0
28 *94:22 *215:8 5.4315e-05
29 *94:22 *215:35 0.00206202
30 *1333:A2_N *94:10 0.000436956
31 *1333:B1 *94:10 2.09826e-05
32 *41:18 *94:10 0
33 *55:16 *94:10 0
34 *62:10 *94:10 0.0001543
*RES
1 *1341:X *94:8 29.5321 
2 *94:8 *94:10 52.0357 
3 *94:10 *94:22 48.0714 
4 *94:22 *1351:A1 9.3 
*END

*D_NET *95 0.0472228
*CONN
*I *1373:C I *D sky130_fd_sc_hd__and3_1
*I *1386:C I *D sky130_fd_sc_hd__and4_2
*I *230:DIODE I *D sky130_fd_sc_hd__diode_2
*I *1344:A I *D sky130_fd_sc_hd__and2_2
*I *1368:B I *D sky130_fd_sc_hd__nand2_1
*I *1372:A2 I *D sky130_fd_sc_hd__a21oi_1
*I *1365:A_N I *D sky130_fd_sc_hd__and3b_1
*I *1369:B I *D sky130_fd_sc_hd__or2_1
*I *1342:X O *D sky130_fd_sc_hd__and4_4
*CAP
1 *1373:C 0.00138691
2 *1386:C 0
3 *230:DIODE 7.1684e-05
4 *1344:A 0.000258575
5 *1368:B 0
6 *1372:A2 0
7 *1365:A_N 0
8 *1369:B 0
9 *1342:X 0.00116476
10 *95:113 8.69675e-05
11 *95:109 0.00322425
12 *95:98 0.00273606
13 *95:83 0.00123604
14 *95:68 0.00146428
15 *95:53 0.00207605
16 *95:36 0.00493778
17 *95:12 0.00491016
18 *230:DIODE *1386:A 0.00014183
19 *230:DIODE *1394:C 0.000226804
20 *1344:A *1344:B 0.000684916
21 *1344:A *97:10 0.000104786
22 *1344:A *145:12 0.000599941
23 *1344:A *181:151 0.000103211
24 *1373:C *120:8 0.000274427
25 *1373:C *120:18 0.000258882
26 *1373:C *147:74 0
27 *1373:C *221:52 0.000387466
28 *95:12 *1342:D 0
29 *95:12 *130:10 0.000180777
30 *95:12 *172:14 0.000204179
31 *95:12 *189:36 0.002011
32 *95:12 *219:16 0
33 *95:36 *1362:B 0
34 *95:36 *1397:A 9.34004e-05
35 *95:36 *1414:A 0.000105047
36 *95:36 *1433:A2 0
37 *95:36 *1530:A 2.11419e-05
38 *95:36 *97:71 0.000168661
39 *95:36 *103:61 1.65025e-05
40 *95:36 *105:45 0
41 *95:36 *105:49 0.000321614
42 *95:36 *105:66 0.000170604
43 *95:36 *160:35 1.27301e-05
44 *95:36 *167:12 9.78793e-05
45 *95:36 *168:24 6.43087e-06
46 *95:36 *169:26 3.68161e-05
47 *95:36 *183:51 3.95296e-05
48 *95:36 *187:34 0.000314193
49 *95:36 *187:68 0.000226137
50 *95:36 *218:42 0.000900902
51 *95:36 *220:42 0.000629496
52 *95:53 *1330:A 0.00154011
53 *95:53 *1365:C 3.97657e-05
54 *95:53 *1433:A2 0
55 *95:53 *1434:B 4.65158e-06
56 *95:53 *1451:A_N 0.000915568
57 *95:53 *1451:C 5.45965e-05
58 *95:53 *188:37 0.000343376
59 *95:53 *218:70 0.000194069
60 *95:68 *1372:B1 5.52238e-05
61 *95:68 *179:24 5.41794e-05
62 *95:68 *189:36 0.00187455
63 *95:83 *1352:B1_N 0.000318022
64 *95:83 *1372:B1 0.000125547
65 *95:83 *1494:A 0
66 *95:83 *97:18 0.000220455
67 *95:83 *129:16 0.000172558
68 *95:83 *152:10 0
69 *95:83 *189:36 0.000477933
70 *95:83 *191:43 0
71 *95:83 *191:66 0.000538339
72 *95:83 *207:122 0.000224168
73 *95:83 *220:66 0.000595691
74 *95:98 *1347:D 0.00010266
75 *95:98 *1352:B1_N 0.000114994
76 *95:98 *1374:B 0.000741443
77 *95:98 *1452:D1 0
78 *95:98 *1527:A 4.15526e-05
79 *95:98 *1540:A 0.000197496
80 *95:98 *129:16 0.000708568
81 *95:109 *1343:A 0.0001686
82 *95:109 *1343:B 0.000322236
83 *95:109 *1347:D 1.12578e-05
84 *95:109 *1374:B 0.000585639
85 *95:109 *1527:A 0.000392291
86 *95:109 *120:18 0.000692546
87 *95:109 *129:10 0.000367624
88 *95:109 *141:43 0.000623561
89 *95:109 *147:74 0
90 *95:109 *205:10 0.00109999
91 *95:109 *205:50 1.93629e-05
92 *95:109 *216:18 7.64641e-05
93 *95:109 *219:10 4.19535e-05
94 *95:109 *222:18 0.00014849
95 *95:113 *1394:C 5.49489e-05
96 *1498:D *95:53 0
97 *1511:D *1373:C 0.000181803
98 *1517:RESET_B *95:53 0
99 *22:12 *230:DIODE 6.79277e-05
100 *22:12 *95:113 1.34548e-05
101 *33:16 *95:36 1.11775e-05
102 *33:16 *95:53 1.8783e-05
103 *45:14 *95:12 0.0001827
104 *48:12 *95:68 0.00030824
105 *51:8 *95:98 0
106 *61:14 *95:68 5.41794e-05
107 *86:10 *95:53 0
108 *86:32 *95:36 0.000140579
109 *88:62 *95:36 9.06546e-05
*RES
1 *1342:X *95:12 43.0143 
2 *95:12 *95:36 47.3295 
3 *95:36 *1369:B 13.8 
4 *95:36 *95:53 41.3393 
5 *95:53 *1365:A_N 9.3 
6 *95:12 *95:68 28.0536 
7 *95:68 *1372:A2 9.3 
8 *95:68 *95:83 29.3839 
9 *95:83 *1368:B 9.3 
10 *95:83 *95:98 21.9732 
11 *95:98 *1344:A 22.55 
12 *95:98 *95:109 49 
13 *95:109 *95:113 5.03571 
14 *95:113 *230:DIODE 12.8714 
15 *95:113 *1386:C 9.3 
16 *95:109 *1373:C 35.0946 
*END

*D_NET *96 0.0117682
*CONN
*I *1386:D I *D sky130_fd_sc_hd__and4_2
*I *1344:B I *D sky130_fd_sc_hd__and2_2
*I *1343:X O *D sky130_fd_sc_hd__and4_1
*CAP
1 *1386:D 0.00115627
2 *1344:B 0.000645555
3 *1343:X 0
4 *96:6 0.00180183
5 *1344:B *1347:C 0.00103463
6 *1344:B *1374:C 0.000383719
7 *1344:B *1440:A2 0.000215102
8 *1344:B *97:10 0.000772694
9 *1344:B *120:20 0.000330858
10 *1344:B *129:10 9.05174e-05
11 *1344:B *165:26 0.000144732
12 *1386:D *1347:C 0.000873743
13 *1386:D *1394:C 0.000222666
14 *1386:D *1435:B 0.000459202
15 *1386:D *1484:A 8.64076e-05
16 *1386:D *1488:A 3.48284e-05
17 *1386:D *120:18 0.000218726
18 *1386:D *120:20 0.000838591
19 *1386:D *129:10 7.7299e-05
20 *1386:D *142:22 0.000552832
21 *1386:D *210:91 6.30931e-05
22 *1344:A *1344:B 0.000684916
23 *1510:RESET_B *1386:D 0.000329603
24 *27:12 *1386:D 0.000750432
*RES
1 *1343:X *96:6 13.8 
2 *96:6 *1344:B 37.5321 
3 *96:6 *1386:D 49.1929 
*END

*D_NET *97 0.0339985
*CONN
*I *1380:C1 I *D sky130_fd_sc_hd__a211oi_2
*I *1381:B I *D sky130_fd_sc_hd__or2_1
*I *1385:A2 I *D sky130_fd_sc_hd__a21oi_1
*I *1382:B I *D sky130_fd_sc_hd__nand2_1
*I *1349:A2 I *D sky130_fd_sc_hd__o31a_1
*I *1344:X O *D sky130_fd_sc_hd__and2_2
*CAP
1 *1380:C1 0.00147872
2 *1381:B 0.000683349
3 *1385:A2 1.69531e-05
4 *1382:B 0.000387877
5 *1349:A2 2.13113e-05
6 *1344:X 0
7 *97:71 0.00231066
8 *97:59 0.00210584
9 *97:18 0.00125227
10 *97:12 0.00111455
11 *97:10 0.00142856
12 *97:4 0.00217423
13 *1380:C1 *1380:A2 0.00030926
14 *1380:C1 *1380:B1 0.00030926
15 *1380:C1 *1443:C 0.000114917
16 *1380:C1 *198:18 0.0012648
17 *1381:B *98:12 0.000516404
18 *1381:B *98:14 0.000450583
19 *1381:B *125:16 5.33005e-05
20 *1381:B *175:34 0.000227736
21 *1381:B *178:14 0.00139534
22 *1381:B *183:18 0.000215108
23 *1382:B *1494:A 2.59355e-05
24 *1382:B *102:16 7.88091e-05
25 *1382:B *104:16 5.05e-05
26 *1382:B *200:44 0.000135454
27 *1382:B *201:62 5.33005e-05
28 *1385:A2 *1420:B1 5.33005e-05
29 *1385:A2 *105:20 5.33005e-05
30 *97:10 *1408:A 0.000929716
31 *97:10 *145:12 2.43875e-05
32 *97:10 *168:36 8.25843e-06
33 *97:10 *179:39 0.00180573
34 *97:12 *157:16 0
35 *97:12 *224:59 0.00017236
36 *97:18 *1349:A1 0
37 *97:18 *1494:A 0
38 *97:18 *101:14 0.000228876
39 *97:18 *102:16 4.77002e-05
40 *97:18 *152:10 0
41 *97:18 *157:16 0
42 *97:18 *207:122 0
43 *97:18 *224:59 5.1588e-05
44 *97:18 *224:65 0.000908454
45 *97:59 *1336:A1 0.000168496
46 *97:59 *1385:B1 9.41642e-05
47 *97:59 *179:24 0.00110708
48 *97:59 *194:24 8.48826e-05
49 *97:59 *206:30 0.000109931
50 *97:59 *225:29 0.00102535
51 *97:71 *103:61 0.000158658
52 *97:71 *165:45 0.00197921
53 *97:71 *168:24 0.00155793
54 *97:71 *193:22 0.000141668
55 *97:71 *199:62 0.000326101
56 *97:71 *210:33 0.000305275
57 *1337:A *97:10 0.000210606
58 *1337:A *97:12 0.000186671
59 *1344:A *97:10 0.000104786
60 *1344:B *97:10 0.000772694
61 *1503:D *1381:B 0.000423226
62 *1505:RESET_B *1380:C1 0.000125731
63 *25:18 *1381:B 0.000245836
64 *29:30 *97:12 8.79856e-06
65 *29:30 *97:18 1.49363e-05
66 *51:8 *1382:B 0.000238311
67 *57:10 *97:59 8.35129e-05
68 *74:16 *1380:C1 0.000911658
69 *81:14 *97:10 0.000218098
70 *81:14 *97:12 0.000144394
71 *87:24 *97:59 0.000393636
72 *88:74 *97:12 9.03222e-06
73 *95:36 *97:71 0.000168661
74 *95:83 *97:18 0.000220455
*RES
1 *1344:X *97:4 9.3 
2 *97:4 *97:10 28.0179 
3 *97:10 *97:12 5.28571 
4 *97:12 *97:18 22.5 
5 *97:18 *1349:A2 9.72857 
6 *97:18 *1382:B 27.05 
7 *97:12 *1385:A2 14.3357 
8 *97:10 *97:59 31.2321 
9 *97:59 *97:71 48.0357 
10 *97:71 *1381:B 38.1393 
11 *97:4 *1380:C1 49.6929 
*END

*D_NET *98 0.0170212
*CONN
*I *1346:D I *D sky130_fd_sc_hd__or4_1
*I *1409:C I *D sky130_fd_sc_hd__and4_1
*I *1345:X O *D sky130_fd_sc_hd__and4_1
*CAP
1 *1346:D 0.00221741
2 *1409:C 0
3 *1345:X 0.0017508
4 *98:14 0.0033144
5 *98:12 0.00284779
6 *1346:D *104:16 0
7 *1346:D *131:26 0
8 *1346:D *146:20 5.85882e-05
9 *1346:D *188:90 0.000137829
10 *1346:D *196:34 0.000151722
11 *1346:D *200:63 0.000486165
12 *98:12 *1345:D 5.42152e-05
13 *98:12 *114:18 0.000304637
14 *98:12 *134:12 0
15 *98:12 *168:55 0.000358981
16 *98:14 *129:24 0
17 *98:14 *129:30 0.000386362
18 *98:14 *135:16 0.000676256
19 *98:14 *146:20 0.000103524
20 *98:14 *168:24 0.000566494
21 *98:14 *168:55 0.000472554
22 *98:14 *175:34 0.000226021
23 *98:14 *178:14 0.000108336
24 *98:14 *178:18 0.000576187
25 *98:14 *183:18 0.000215701
26 *229:DIODE *98:12 4.46618e-05
27 *1381:B *98:12 0.000516404
28 *1381:B *98:14 0.000450583
29 *1497:D *98:12 3.26288e-05
30 *1503:D *98:12 0.000288181
31 *1528:A *1346:D 0
32 *25:18 *98:12 0.00011066
33 *32:16 *98:12 7.3125e-05
34 *32:16 *98:14 6.73707e-06
35 *38:12 *1346:D 0
36 *52:24 *1346:D 0.000484248
*RES
1 *1345:X *98:12 45.9696 
2 *98:12 *98:14 35.3839 
3 *98:14 *1409:C 13.8 
4 *98:14 *1346:D 31.1402 
*END

*D_NET *99 0.00437861
*CONN
*I *1349:A3 I *D sky130_fd_sc_hd__o31a_1
*I *1346:X O *D sky130_fd_sc_hd__or4_1
*CAP
1 *1349:A3 0.000373921
2 *1346:X 0.000373921
3 *1349:A3 *1475:A 0.000347166
4 *1349:A3 *102:16 0.00134681
5 *1349:A3 *143:20 0
6 *1349:A3 *200:44 0.00125998
7 *1349:A3 *200:50 0.000389728
8 *1349:A3 *201:62 1.47872e-05
9 *31:14 *1349:A3 0.00012013
10 *91:16 *1349:A3 0.00015217
*RES
1 *1346:X *1349:A3 45.9214 
*END

*D_NET *100 0.0108118
*CONN
*I *1348:C I *D sky130_fd_sc_hd__and4b_1
*I *1347:X O *D sky130_fd_sc_hd__and4b_1
*CAP
1 *1348:C 0.0010953
2 *1347:X 0.000962109
3 *100:14 0.00205741
4 *1348:C *1348:B 0.000516742
5 *1348:C *1348:D 0.000130944
6 *1348:C *1423:A 0.000626714
7 *1348:C *1423:B 0.000561864
8 *1348:C *101:14 0.00114658
9 *1348:C *156:8 0.00114461
10 *1348:C *207:126 0.000431015
11 *100:14 *1440:A2 0.000116939
12 *100:14 *129:10 4.02051e-05
13 *100:14 *139:26 0.000138866
14 *100:14 *145:12 0
15 *100:14 *200:44 0.0009656
16 *100:14 *201:62 0.000756476
17 *1519:RESET_B *100:14 1.94879e-05
18 *21:18 *100:14 0.000100936
*RES
1 *1347:X *100:14 42.1571 
2 *100:14 *1348:C 46.4071 
*END

*D_NET *101 0.00635936
*CONN
*I *1349:B1 I *D sky130_fd_sc_hd__o31a_1
*I *1348:X O *D sky130_fd_sc_hd__and4b_1
*CAP
1 *1349:B1 0
2 *1348:X 0.00135594
3 *101:14 0.00135594
4 *101:14 *1336:A1 5.29557e-05
5 *101:14 *102:16 0.00151639
6 *101:14 *143:20 0.000615169
7 *101:14 *206:30 8.75109e-05
8 *1348:C *101:14 0.00114658
9 *31:14 *101:14 0
10 *97:18 *101:14 0.000228876
*RES
1 *1348:X *101:14 47.675 
2 *101:14 *1349:B1 9.3 
*END

*D_NET *102 0.0072012
*CONN
*I *1351:A2 I *D sky130_fd_sc_hd__o211ai_4
*I *1349:X O *D sky130_fd_sc_hd__o31a_1
*CAP
1 *1351:A2 0
2 *1349:X 0.000853009
3 *102:16 0.000853009
4 *102:16 *1336:B1 5.50052e-05
5 *102:16 *1351:C1 0.000280937
6 *102:16 *143:8 3.47793e-05
7 *102:16 *143:20 0.000943123
8 *102:16 *174:40 0.000394037
9 *102:16 *200:44 9.14454e-05
10 *1349:A3 *102:16 0.00134681
11 *1382:B *102:16 7.88091e-05
12 *38:12 *102:16 0.000438417
13 *91:16 *102:16 0.000267729
14 *97:18 *102:16 4.77002e-05
15 *101:14 *102:16 0.00151639
*RES
1 *1349:X *102:16 45.4607 
2 *102:16 *1351:A2 9.3 
*END

*D_NET *103 0.0267191
*CONN
*I *1351:B1 I *D sky130_fd_sc_hd__o211ai_4
*I *1439:A I *D sky130_fd_sc_hd__and2_2
*I *1350:X O *D sky130_fd_sc_hd__and4_2
*CAP
1 *1351:B1 0.000923561
2 *1439:A 0.00128301
3 *1350:X 0.00172204
4 *103:61 0.00290095
5 *103:24 0.00498244
6 *1351:B1 *1351:C1 5.4315e-05
7 *1351:B1 *1429:C 9.88887e-05
8 *1351:B1 *1449:B1 0
9 *1351:B1 *127:12 0.000243382
10 *1351:B1 *139:55 0.000457695
11 *1351:B1 *176:43 8.53875e-05
12 *1351:B1 *196:34 0.000569355
13 *1351:B1 *218:42 0
14 *1439:A *1439:B 0.000552109
15 *1439:A *1454:A1 0.00122202
16 *1439:A *166:10 0.000201837
17 *1439:A *168:8 0.000193356
18 *1439:A *172:14 0.00200789
19 *1439:A *176:37 0.00020393
20 *103:24 *120:62 1.90936e-05
21 *103:24 *124:30 6.68374e-05
22 *103:24 *126:28 8.80804e-05
23 *103:24 *156:31 0
24 *103:24 *172:14 0.00135189
25 *103:24 *180:58 8.17119e-05
26 *103:24 *212:12 0.000523765
27 *103:24 *212:23 0.000368522
28 *103:24 *225:35 0.000885251
29 *103:61 *1429:C 0
30 *103:61 *110:24 2.59822e-05
31 *103:61 *148:20 0.00060151
32 *103:61 *153:10 0.00033254
33 *103:61 *160:35 0
34 *103:61 *168:24 5.74576e-05
35 *103:61 *183:81 7.6644e-05
36 *103:61 *193:14 0.000594953
37 *103:61 *199:56 0.000114503
38 *103:61 *209:12 6.43196e-05
39 *103:61 *209:39 3.38975e-05
40 *103:61 *218:42 0.000141551
41 *1339:B1 *103:24 3.29159e-05
42 *1499:RESET_B *1351:B1 2.79978e-05
43 *1514:RESET_B *103:61 0.00030235
44 *1526:RESET_B *1439:A 0.000364133
45 *1526:RESET_B *103:24 0.0019943
46 *53:12 *103:24 0.000178094
47 *86:32 *103:61 7.82431e-05
48 *90:22 *1351:B1 0.000435263
49 *95:36 *103:61 1.65025e-05
50 *97:71 *103:61 0.000158658
*RES
1 *1350:X *103:24 46.0507 
2 *103:24 *1439:A 28.7417 
3 *103:24 *103:61 49.1284 
4 *103:61 *1351:B1 35.5857 
*END

*D_NET *104 0.0163439
*CONN
*I *1448:A2 I *D sky130_fd_sc_hd__a21o_1
*I *1352:A2 I *D sky130_fd_sc_hd__a21bo_2
*I *1351:Y O *D sky130_fd_sc_hd__o211ai_4
*CAP
1 *1448:A2 0
2 *1352:A2 2.91227e-05
3 *1351:Y 0.00324829
4 *104:41 0.00106379
5 *104:16 0.00434121
6 *1352:A2 *1425:B 3.32631e-05
7 *1352:A2 *1440:A1 9.71197e-05
8 *104:16 *1331:A 1.75989e-05
9 *104:16 *1349:A1 0
10 *104:16 *1449:C1 2.06178e-05
11 *104:16 *115:101 0.0003103
12 *104:16 *126:28 0.000394612
13 *104:16 *131:26 0.0018423
14 *104:16 *138:12 0.000333196
15 *104:16 *143:20 0.000132821
16 *104:16 *162:26 0.000471263
17 *104:16 *167:22 1.38247e-05
18 *104:41 *1331:A 1.01241e-05
19 *104:41 *1452:A2 0.000119679
20 *104:41 *132:14 6.57032e-05
21 *104:41 *138:12 5.15944e-05
22 *104:41 *167:22 0.000127759
23 *104:41 *168:36 0.000188812
24 *104:41 *170:72 0.000146011
25 *1346:D *104:16 0
26 *1352:A1 *104:41 0.00202951
27 *1382:B *104:16 5.05e-05
28 *1519:RESET_B *104:16 0.00033998
29 *39:22 *104:16 1.82e-05
30 *51:8 *104:16 0
31 *51:8 *104:41 0.000791506
32 *93:14 *104:41 5.51716e-05
*RES
1 *1351:Y *104:16 40.9502 
2 *104:16 *1352:A2 14.7464 
3 *104:16 *104:41 44.9107 
4 *104:41 *1448:A2 9.3 
*END

*D_NET *105 0.0383987
*CONN
*I *1429:A I *D sky130_fd_sc_hd__and3_1
*I *1353:A I *D sky130_fd_sc_hd__inv_2
*I *1365:B I *D sky130_fd_sc_hd__and3b_1
*I *1358:B I *D sky130_fd_sc_hd__and3_1
*I *1383:B I *D sky130_fd_sc_hd__and3_1
*I *1446:A I *D sky130_fd_sc_hd__and3_1
*I *1367:A I *D sky130_fd_sc_hd__buf_2
*I *1436:A I *D sky130_fd_sc_hd__and3_1
*I *1362:B I *D sky130_fd_sc_hd__and3_1
*I *1352:X O *D sky130_fd_sc_hd__a21bo_2
*CAP
1 *1429:A 5.97672e-05
2 *1353:A 0.000355708
3 *1365:B 0.000302327
4 *1358:B 0.00126576
5 *1383:B 0.000263675
6 *1446:A 0.000164374
7 *1367:A 0
8 *1436:A 0
9 *1362:B 0.000690551
10 *1352:X 0.00360878
11 *105:130 0.00153203
12 *105:107 0.00260793
13 *105:74 0.000525144
14 *105:70 0.000849859
15 *105:66 0.00114447
16 *105:49 0.000626218
17 *105:45 0.00049732
18 *105:20 0.00456155
19 *1358:B *109:18 0.000758265
20 *1358:B *164:12 0.00021844
21 *1362:B *1362:A 4.58402e-05
22 *1362:B *1444:B 2.82057e-05
23 *1362:B *1445:B 0.0001902
24 *1362:B *139:55 0.000139331
25 *1362:B *200:63 0.000292339
26 *1362:B *210:33 0.000759687
27 *1362:B *216:70 0.000563619
28 *1362:B *218:42 0
29 *1365:B *114:18 5.80706e-06
30 *1365:B *134:37 2.84906e-05
31 *1365:B *166:10 7.79781e-06
32 *1383:B *1383:A 5.41797e-06
33 *1383:B *1383:C 1.74352e-05
34 *1383:B *1439:B 6.81704e-05
35 *1383:B *155:59 6.39829e-05
36 *1383:B *210:56 0.000159935
37 *1429:A *135:16 0.000129239
38 *1429:A *176:37 4.35564e-05
39 *1446:A *115:8 0.000152773
40 *1446:A *191:28 6.05161e-06
41 *1446:A *223:25 0.000372659
42 *105:20 *1385:B1 2.49942e-05
43 *105:20 *1406:C 5.35558e-05
44 *105:20 *1420:B1 0.00023468
45 *105:20 *1420:C1 5.33005e-05
46 *105:20 *1443:B 0
47 *105:20 *115:76 0.000503688
48 *105:20 *115:101 7.48927e-06
49 *105:20 *150:30 0
50 *105:20 *196:34 0
51 *105:20 *224:59 6.5396e-05
52 *105:20 *224:65 0.00015806
53 *105:45 *1397:A 6.58289e-05
54 *105:45 *1414:A 3.65451e-05
55 *105:45 *135:16 0.00018103
56 *105:45 *148:20 0.000265764
57 *105:45 *176:37 9.58104e-05
58 *105:45 *210:33 0.000601158
59 *105:49 *148:20 8.03749e-05
60 *105:49 *193:14 3.29297e-05
61 *105:66 *134:73 0.000218679
62 *105:66 *144:14 0.000216755
63 *105:66 *169:26 0.000111065
64 *105:66 *183:51 2.4461e-05
65 *105:66 *193:14 0.000244973
66 *105:66 *214:46 0.0002253
67 *105:66 *216:42 0.000174467
68 *105:66 *218:30 0.000755417
69 *105:70 *191:28 0.0010749
70 *105:70 *223:25 0.000247485
71 *105:74 *191:28 0.000523658
72 *105:74 *223:25 0.00105133
73 *105:107 *109:18 0.000382821
74 *105:107 *148:20 2.04866e-05
75 *105:107 *216:42 0.000142363
76 *105:107 *218:30 0.000286869
77 *105:130 *1442:C 0.000493947
78 *105:130 *1474:A 0.0002671
79 *105:130 *130:10 0.000128675
80 *105:130 *168:55 0.00018796
81 *1333:B1 *105:130 1.94879e-05
82 *1385:A2 *105:20 5.33005e-05
83 *1454:B1 *105:70 0.000602226
84 *1502:RESET_B *105:66 0.000210856
85 *1502:RESET_B *105:107 0.000459317
86 *1513:D *1383:B 2.13277e-05
87 *1517:D *1365:B 0.00020212
88 *1528:A *105:20 9.99056e-05
89 *20:18 *1353:A 0.000416302
90 *20:18 *1365:B 0.000235222
91 *29:30 *105:20 0.000234283
92 *41:18 *1365:B 7.33295e-05
93 *62:10 *105:130 0.00194491
94 *87:18 *105:20 0.00023538
95 *89:14 *105:130 8.97698e-05
96 *94:10 *105:130 0.000656685
97 *95:36 *1362:B 0
98 *95:36 *105:45 0
99 *95:36 *105:49 0.000321614
100 *95:36 *105:66 0.000170604
*RES
1 *1352:X *105:20 35.8348 
2 *105:20 *1362:B 40.9518 
3 *105:20 *105:45 14.1339 
4 *105:45 *105:49 8.875 
5 *105:49 *1436:A 13.8 
6 *105:49 *105:66 24.4821 
7 *105:66 *105:70 14.8929 
8 *105:70 *105:74 10.8214 
9 *105:74 *1367:A 9.3 
10 *105:74 *1446:A 13.55 
11 *105:70 *1383:B 22.3179 
12 *105:66 *105:107 14.5179 
13 *105:107 *1358:B 34.9786 
14 *105:107 *105:130 38.5714 
15 *105:130 *1365:B 25.3893 
16 *105:130 *1353:A 16.425 
17 *105:45 *1429:A 10.9786 
*END

*D_NET *106 0.0176856
*CONN
*I *1380:B1 I *D sky130_fd_sc_hd__a211oi_2
*I *1354:A I *D sky130_fd_sc_hd__clkbuf_4
*I *1353:Y O *D sky130_fd_sc_hd__inv_2
*CAP
1 *1380:B1 0.000406797
2 *1354:A 0.000136516
3 *1353:Y 0.00127284
4 *106:33 0.00196412
5 *106:27 0.00400335
6 *106:8 0.00385538
7 *1354:A *186:34 0.000351032
8 *1380:B1 *1380:A2 0.000290346
9 *106:27 *1495:CLK 9.90431e-05
10 *106:27 *146:20 0.000416588
11 *106:27 *147:10 0.000214455
12 *106:27 *186:34 7.75093e-05
13 *106:27 *186:47 2.31791e-05
14 *106:33 *1518:CLK 0.000192363
15 *106:33 *1520:CLK 0.000170945
16 *106:33 *154:12 0
17 *106:33 *185:64 9.61853e-05
18 *106:33 *192:14 0
19 *106:33 *220:108 0
20 *1380:C1 *1380:B1 0.00030926
21 *1495:RESET_B *106:27 9.2014e-05
22 *1516:RESET_B *1354:A 0.000351032
23 *1516:RESET_B *106:27 9.3153e-05
24 *1520:RESET_B *106:33 0.00123324
25 *20:18 *106:8 0.00195571
26 *20:18 *106:27 8.05541e-05
*RES
1 *1353:Y *106:8 32.4071 
2 *106:8 *1354:A 18.4786 
3 *106:8 *106:27 46.7679 
4 *106:27 *106:33 43.125 
5 *106:33 *1380:B1 17.6393 
*END

*D_NET *107 0.0191211
*CONN
*I *1358:A I *D sky130_fd_sc_hd__and3_1
*I *231:DIODE I *D sky130_fd_sc_hd__diode_2
*I *1356:Y O *D sky130_fd_sc_hd__nand2_1
*CAP
1 *1358:A 2.22847e-05
2 *231:DIODE 5.71893e-05
3 *1356:Y 0.000651149
4 *107:46 0.00291718
5 *107:40 0.00383752
6 *107:20 0.00165096
7 *231:DIODE *190:28 0.000141734
8 *107:20 *1364:A3 2.12005e-05
9 *107:20 *147:66 0.000376218
10 *107:20 *147:68 0.000262498
11 *107:20 *149:6 4.58976e-05
12 *107:20 *149:14 0.000224007
13 *107:20 *199:107 5.49544e-05
14 *107:20 *206:58 4.43256e-05
15 *107:20 *207:79 0.000723671
16 *107:20 *218:96 4.33273e-05
17 *107:40 *1532:A 0.000734823
18 *107:40 *115:132 0.000175892
19 *107:40 *121:16 0.000998806
20 *107:40 *130:22 1.77089e-05
21 *107:40 *131:26 9.15842e-06
22 *107:40 *157:10 0.000921218
23 *107:40 *181:58 4.79864e-05
24 *107:40 *185:16 9.30459e-05
25 *107:40 *212:8 0.000816954
26 *107:46 *1358:C 0.000631652
27 *107:46 *1457:B 0.000395877
28 *107:46 *1457:C 0.000153589
29 *107:46 *176:12 7.02611e-05
30 *107:46 *190:22 0.000411364
31 *107:46 *190:28 0.000757925
32 *1332:B *107:40 5.33005e-05
33 *1510:RESET_B *107:20 6.94775e-05
34 *1513:RESET_B *107:46 0.00158983
35 *87:24 *107:40 7.58841e-05
36 *87:51 *107:40 2.22419e-05
*RES
1 *1356:Y *107:20 39.1036 
2 *107:20 *107:40 41.4821 
3 *107:40 *107:46 41.2321 
4 *107:46 *231:DIODE 10.6571 
5 *107:46 *1358:A 9.72857 
*END

*D_NET *108 0.0128478
*CONN
*I *1358:C I *D sky130_fd_sc_hd__and3_1
*I *1357:X O *D sky130_fd_sc_hd__or2_1
*CAP
1 *1358:C 0.000172605
2 *1357:X 0.00356565
3 *108:18 0.00373826
4 *1358:C *109:18 0.00051944
5 *108:18 *1381:A 0.000189951
6 *108:18 *1426:A 0.000520831
7 *108:18 *1428:A 0.000199855
8 *108:18 *1530:A 0.000413549
9 *108:18 *109:18 9.8126e-05
10 *108:18 *117:20 0.000102275
11 *108:18 *141:14 0.00121044
12 *108:18 *156:31 0
13 *108:18 *169:26 4.88341e-05
14 *108:18 *198:16 0.000208065
15 *108:18 *199:27 0
16 *108:18 *199:42 0
17 *108:18 *201:14 0.00014399
18 *108:18 *205:50 1.98839e-05
19 *108:18 *211:27 0.00029683
20 *1503:D *108:18 0.000562224
21 *22:20 *108:18 6.499e-05
22 *25:18 *108:18 0.000140331
23 *84:49 *108:18 0
24 *107:46 *1358:C 0.000631652
*RES
1 *1357:X *108:18 46.8303 
2 *108:18 *1358:C 19.9429 
*END

*D_NET *109 0.0248868
*CONN
*I *1359:A I *D sky130_fd_sc_hd__buf_1
*I *1358:X O *D sky130_fd_sc_hd__and3_1
*CAP
1 *1359:A 0
2 *1358:X 0.00164197
3 *109:44 0.00144225
4 *109:38 0.00590487
5 *109:18 0.00610459
6 *109:18 *130:22 0.00010512
7 *109:18 *201:14 9.96553e-05
8 *109:38 *1433:A2 0
9 *109:38 *1457:B 0.000382744
10 *109:38 *1526:CLK 5.1588e-05
11 *109:38 *124:30 8.37583e-05
12 *109:38 *131:26 0.000173564
13 *109:38 *182:12 0.00054853
14 *109:38 *184:99 0.000137492
15 *109:38 *187:44 2.74931e-05
16 *109:38 *188:65 0.000538793
17 *109:38 *203:31 0.000368591
18 *109:44 *1443:C 0.00166661
19 *109:44 *198:18 0
20 *1331:B *109:44 0
21 *1332:B *109:18 7.20217e-06
22 *1358:B *109:18 0.000758265
23 *1358:C *109:18 0.00051944
24 *1505:D *109:44 0.000315792
25 *1513:D *109:38 4.46186e-06
26 *1518:RESET_B *109:44 0.000652871
27 *1526:RESET_B *109:38 0.00140352
28 *31:8 *109:44 0.000169383
29 *36:12 *109:44 0.000312222
30 *54:24 *109:18 7.32386e-05
31 *79:8 *109:44 0
32 *87:18 *109:44 2.11419e-05
33 *87:24 *109:38 0.000159279
34 *88:6 *109:18 8.42294e-05
35 *88:14 *109:18 0.000647249
36 *105:107 *109:18 0.000382821
37 *108:18 *109:18 9.8126e-05
*RES
1 *1358:X *109:18 45.9071 
2 *109:18 *109:38 46.2452 
3 *109:38 *109:44 42.2946 
4 *109:44 *1359:A 9.3 
*END

*D_NET *110 0.0197077
*CONN
*I *1362:A I *D sky130_fd_sc_hd__and3_1
*I *1360:Y O *D sky130_fd_sc_hd__nand3_1
*CAP
1 *1362:A 0.000725784
2 *1360:Y 0.00540907
3 *110:24 0.00613486
4 *1362:A *1389:A 0
5 *1362:A *111:10 0.00166873
6 *1362:A *130:10 4.99283e-06
7 *1362:A *143:8 2.85234e-05
8 *1362:A *146:20 0.00013668
9 *1362:A *194:12 2.28776e-05
10 *1362:A *220:12 0.000516479
11 *110:24 *1375:A 0.000121549
12 *110:24 *1415:A 2.42377e-05
13 *110:24 *131:26 0
14 *110:24 *147:84 9.58181e-05
15 *110:24 *158:8 0.000149746
16 *110:24 *162:26 0.0029928
17 *110:24 *188:65 1.94879e-05
18 *110:24 *210:66 0.000308567
19 *110:24 *218:72 0.000207954
20 *110:24 *219:14 8.92205e-05
21 *110:24 *220:42 1.54105e-05
22 *110:24 *226:16 0.000133769
23 *1331:B *110:24 0.000271078
24 *1362:B *1362:A 4.58402e-05
25 *1387:A *1362:A 9.7356e-05
26 *1504:D *1362:A 0.000310643
27 *48:20 *110:24 2.26973e-05
28 *61:14 *110:24 0.000127508
29 *103:61 *110:24 2.59822e-05
*RES
1 *1360:Y *110:24 46.4648 
2 *110:24 *1362:A 36.4696 
*END

*D_NET *111 0.00677474
*CONN
*I *1362:C I *D sky130_fd_sc_hd__and3_1
*I *1361:X O *D sky130_fd_sc_hd__a21o_1
*CAP
1 *1362:C 1.18405e-05
2 *1361:X 0.000932502
3 *111:10 0.000944342
4 *1362:C *143:8 9.50968e-06
5 *111:10 *1387:C 0.00021908
6 *111:10 *130:10 0.000847431
7 *111:10 *194:20 0.00101211
8 *111:10 *199:62 0.00101364
9 *111:10 *215:8 2.06103e-05
10 *111:10 *215:35 9.49559e-05
11 *1362:A *111:10 0.00166873
*RES
1 *1361:X *111:10 45.7643 
2 *111:10 *1362:C 13.9964 
*END

*D_NET *112 0.00620068
*CONN
*I *1363:A I *D sky130_fd_sc_hd__buf_1
*I *1362:X O *D sky130_fd_sc_hd__and3_1
*CAP
1 *1363:A 0
2 *1362:X 0.00213024
3 *112:18 0.00213024
4 *112:18 *1445:B 3.54498e-05
5 *112:18 *1458:A 0.00016168
6 *112:18 *1496:CLK 0.000272344
7 *112:18 *143:8 2.83425e-05
8 *112:18 *210:10 0.000403973
9 *1496:D *112:18 0.00051688
10 *1519:RESET_B *112:18 0.000286268
11 *94:22 *112:18 0.000235264
*RES
1 *1362:X *112:18 49.6036 
2 *112:18 *1363:A 9.3 
*END

*D_NET *113 0.0188545
*CONN
*I *1365:C I *D sky130_fd_sc_hd__and3b_1
*I *1364:X O *D sky130_fd_sc_hd__a31o_1
*CAP
1 *1365:C 0.00131902
2 *1364:X 0.00464208
3 *113:16 0.0059611
4 *1365:C *1330:A 0.00050009
5 *1365:C *1400:A 0.000121405
6 *1365:C *1451:C 0.000525381
7 *1365:C *134:37 9.25014e-06
8 *1365:C *213:25 0.000290294
9 *113:16 *1364:A2 0.000670399
10 *113:16 *118:18 0.000493475
11 *113:16 *162:26 0.000110478
12 *113:16 *220:108 0.000491761
13 *47:26 *113:16 0.000332352
14 *47:91 *113:16 0.00329243
15 *48:20 *113:16 0
16 *86:10 *1365:C 5.52302e-05
17 *95:53 *1365:C 3.97657e-05
*RES
1 *1364:X *113:16 47.2882 
2 *113:16 *1365:C 35.0411 
*END

*D_NET *114 0.00461139
*CONN
*I *1366:A I *D sky130_fd_sc_hd__buf_1
*I *1365:X O *D sky130_fd_sc_hd__and3b_1
*CAP
1 *1366:A 0
2 *1365:X 0.00157324
3 *114:18 0.00157324
4 *114:18 *134:12 0
5 *114:18 *134:37 0.00015136
6 *114:18 *146:20 0.000116155
7 *114:18 *191:12 4.29143e-05
8 *114:18 *191:16 0.000491521
9 *114:18 *201:14 1.01403e-05
10 *229:DIODE *114:18 4.28249e-05
11 *1365:B *114:18 5.80706e-06
12 *1497:D *114:18 4.00349e-05
13 *1517:D *114:18 8.07874e-05
14 *32:16 *114:18 0.000138562
15 *40:16 *114:18 4.01728e-05
16 *98:12 *114:18 0.000304637
*RES
1 *1365:X *114:18 46.8893 
2 *114:18 *1366:A 9.3 
*END

*D_NET *115 0.0340892
*CONN
*I *1377:A I *D sky130_fd_sc_hd__and3_1
*I *1390:A I *D sky130_fd_sc_hd__and3_1
*I *1406:A I *D sky130_fd_sc_hd__and3_1
*I *1401:A I *D sky130_fd_sc_hd__and3_1
*I *1370:A I *D sky130_fd_sc_hd__and3_1
*I *1420:C1 I *D sky130_fd_sc_hd__o211a_1
*I *1425:A I *D sky130_fd_sc_hd__and3_1
*I *1449:B1 I *D sky130_fd_sc_hd__o211a_1
*I *1414:A I *D sky130_fd_sc_hd__and3_1
*I *1397:A I *D sky130_fd_sc_hd__and3_1
*I *1367:X O *D sky130_fd_sc_hd__buf_2
*CAP
1 *1377:A 0.000863465
2 *1390:A 0
3 *1406:A 0
4 *1401:A 0.000113851
5 *1370:A 0.00020757
6 *1420:C1 1.44595e-05
7 *1425:A 3.65421e-05
8 *1449:B1 0.000791663
9 *1414:A 9.95532e-05
10 *1397:A 0.000928957
11 *1367:X 0.000971041
12 *115:132 0.00125769
13 *115:101 0.00148099
14 *115:76 0.00138088
15 *115:34 0.00149843
16 *115:30 0.00181636
17 *115:28 0.00102665
18 *115:22 0.0011181
19 *115:10 0.000765245
20 *115:8 0.0016546
21 *1370:A *116:10 1.25275e-05
22 *1370:A *117:26 0.000358177
23 *1377:A *1377:B 0.000801387
24 *1377:A *1390:C 9.09917e-05
25 *1377:A *1448:B1 9.58689e-05
26 *1377:A *121:16 0.000174411
27 *1377:A *132:14 2.08721e-05
28 *1377:A *174:24 0.000191794
29 *1377:A *200:10 0.000520747
30 *1397:A *129:20 0.000119774
31 *1397:A *137:10 0.000224258
32 *1401:A *1401:C 0.000478034
33 *1401:A *1494:A 0.000230482
34 *1414:A *148:20 5.33978e-05
35 *1414:A *167:12 1.02504e-05
36 *1425:A *1482:A 1.04232e-05
37 *1449:B1 *1449:A2 0.000144986
38 *1449:B1 *1449:C1 7.76631e-05
39 *1449:B1 *127:12 0
40 *1449:B1 *187:68 1.41642e-05
41 *1449:B1 *208:22 0
42 *1449:B1 *220:42 0.000451437
43 *115:8 *1446:C 6.04072e-05
44 *115:8 *214:14 9.71197e-05
45 *115:8 *223:25 0.000260006
46 *115:10 *1350:A 1.36251e-05
47 *115:10 *179:10 0.000402079
48 *115:10 *214:34 9.98699e-05
49 *115:10 *224:59 0.00064166
50 *115:22 *1406:C 1.39928e-05
51 *115:22 *155:32 0.000270862
52 *115:22 *179:10 0.000168789
53 *115:22 *212:12 0.000865623
54 *115:22 *224:59 0.000170511
55 *115:22 *225:35 0.000559582
56 *115:28 *1398:A 0.00054277
57 *115:28 *1425:B 0.000683731
58 *115:28 *1482:A 0.000160079
59 *115:28 *128:12 9.60939e-05
60 *115:28 *153:28 9.94194e-05
61 *115:30 *1482:A 0.000104283
62 *115:30 *1483:A 4.82947e-05
63 *115:30 *181:31 4.82865e-05
64 *115:30 *187:68 0.00033577
65 *115:34 *187:68 9.71197e-05
66 *115:34 *196:34 0.000184814
67 *115:76 *1352:B1_N 1.34959e-05
68 *115:76 *1420:B1 1.40724e-05
69 *115:76 *1425:B 0.00077118
70 *115:76 *128:12 0.000156886
71 *115:101 *1331:A 9.25014e-06
72 *115:101 *1352:B1_N 3.72132e-05
73 *115:101 *1418:B 0.000218554
74 *115:101 *1425:B 1.12822e-05
75 *115:101 *1440:A1 0.0001399
76 *115:101 *117:26 0.00054318
77 *115:101 *119:12 0.00040279
78 *115:101 *152:10 0.000805286
79 *115:101 *207:122 0.000815568
80 *115:132 *1350:A 0.000229356
81 *115:132 *1390:C 0.000262841
82 *115:132 *121:16 0.000469764
83 *115:132 *224:53 0.000215986
84 *115:132 *224:59 0.000188118
85 *1334:B *1397:A 0.000475677
86 *1337:A *115:132 2.90164e-05
87 *1351:B1 *1449:B1 0
88 *1446:A *115:8 0.000152773
89 *49:12 *115:22 0.000177596
90 *51:8 *115:101 9.87679e-05
91 *52:16 *1401:A 0.000190801
92 *79:8 *115:101 0
93 *88:74 *115:22 0.000175892
94 *95:36 *1397:A 9.34004e-05
95 *95:36 *1414:A 0.000105047
96 *104:16 *115:101 0.0003103
97 *105:20 *1420:C1 5.33005e-05
98 *105:20 *115:76 0.000503688
99 *105:20 *115:101 7.48927e-06
100 *105:45 *1397:A 6.58289e-05
101 *105:45 *1414:A 3.65451e-05
102 *107:40 *115:132 0.000175892
*RES
1 *1367:X *115:8 25.8357 
2 *115:8 *115:10 8.625 
3 *115:10 *115:22 29.1786 
4 *115:22 *115:28 13 
5 *115:28 *115:30 9.98214 
6 *115:30 *115:34 12.4286 
7 *115:34 *1397:A 30.55 
8 *115:34 *1414:A 16.6571 
9 *115:30 *1449:B1 33.3 
10 *115:28 *1425:A 10.0321 
11 *115:22 *115:76 8.25 
12 *115:76 *1420:C1 9.83571 
13 *115:76 *115:101 46.7321 
14 *115:101 *1370:A 18.7821 
15 *115:101 *1401:A 19.2643 
16 *115:10 *1406:A 13.8 
17 *115:8 *115:132 15.3393 
18 *115:132 *1390:A 9.3 
19 *115:132 *1377:A 28.925 
*END

*D_NET *116 0.00745752
*CONN
*I *1370:B I *D sky130_fd_sc_hd__and3_1
*I *1368:Y O *D sky130_fd_sc_hd__nand2_1
*CAP
1 *1370:B 0
2 *1368:Y 0.00208499
3 *116:10 0.00208499
4 *116:10 *1392:A2 4.35336e-05
5 *116:10 *117:26 0.00101612
6 *116:10 *118:10 0.000146131
7 *116:10 *129:16 0.000823243
8 *116:10 *133:8 0.000487069
9 *116:10 *140:12 0.00073594
10 *116:10 *201:62 2.29797e-05
11 *1370:A *116:10 1.25275e-05
*RES
1 *1368:Y *116:10 49.5679 
2 *116:10 *1370:B 13.8 
*END

*D_NET *117 0.0200918
*CONN
*I *1370:C I *D sky130_fd_sc_hd__and3_1
*I *1369:X O *D sky130_fd_sc_hd__or2_1
*CAP
1 *1370:C 5.16431e-05
2 *1369:X 0.00243999
3 *117:26 0.00138593
4 *117:24 0.00235096
5 *117:20 0.00345666
6 *1370:C *1464:A 2.05953e-05
7 *117:20 *1426:A 0.00039854
8 *117:20 *1531:A 0.000377484
9 *117:20 *1534:A 3.14003e-05
10 *117:20 *131:26 0
11 *117:20 *142:34 1.59498e-05
12 *117:20 *159:16 0.000109877
13 *117:20 *179:110 6.5381e-05
14 *117:20 *182:66 0.000810592
15 *117:20 *187:34 0.000218409
16 *117:20 *208:41 0.000111369
17 *117:24 *170:64 0.000261929
18 *117:24 *185:6 0.000628538
19 *117:24 *185:12 5.33005e-05
20 *117:24 *185:62 0.0013485
21 *117:26 *118:10 0.000303839
22 *117:26 *140:12 0.000605765
23 *117:26 *154:12 0.00235682
24 *117:26 *220:108 0.000597276
25 *1370:A *117:26 0.000358177
26 *79:8 *117:26 0
27 *80:12 *117:20 7.12638e-05
28 *108:18 *117:20 0.000102275
29 *115:101 *117:26 0.00054318
30 *116:10 *117:26 0.00101612
*RES
1 *1369:X *117:20 37.2582 
2 *117:20 *117:24 24.3393 
3 *117:24 *117:26 47.4821 
4 *117:26 *1370:C 14.4071 
*END

*D_NET *118 0.0256748
*CONN
*I *1371:A I *D sky130_fd_sc_hd__buf_1
*I *1370:X O *D sky130_fd_sc_hd__and3_1
*CAP
1 *1371:A 0.000119449
2 *1370:X 0
3 *118:20 0.00144013
4 *118:18 0.00272868
5 *118:10 0.00256042
6 *118:6 0.00115242
7 *118:10 *1423:A 0.00022246
8 *118:10 *140:12 0.00192697
9 *118:10 *220:108 6.16901e-05
10 *118:18 *1432:D 0.000128303
11 *118:18 *147:10 0
12 *118:18 *216:18 0.000171375
13 *118:18 *220:108 0.00212115
14 *118:18 *221:52 0
15 *118:20 *1341:A2 0.000794743
16 *118:20 *1527:A 0.000225548
17 *118:20 *149:54 0.00333125
18 *118:20 *192:6 0.00216621
19 *118:20 *208:123 5.24654e-05
20 *26:8 *118:10 0.00247355
21 *26:8 *118:18 0.000726693
22 *52:16 *118:10 5.403e-05
23 *54:16 *118:20 0.00214033
24 *54:24 *1371:A 5.63207e-05
25 *55:16 *1371:A 7.71596e-05
26 *113:16 *118:18 0.000493475
27 *116:10 *118:10 0.000146131
28 *117:26 *118:10 0.000303839
*RES
1 *1370:X *118:6 13.8 
2 *118:6 *118:10 41.9911 
3 *118:10 *118:18 45.6161 
4 *118:18 *118:20 58.4464 
5 *118:20 *1371:A 20.8536 
*END

*D_NET *119 0.009607
*CONN
*I *1374:B I *D sky130_fd_sc_hd__nor3_1
*I *1372:Y O *D sky130_fd_sc_hd__a21oi_1
*CAP
1 *1374:B 0.000759607
2 *1372:Y 0.00129488
3 *119:12 0.00205449
4 *1374:B *1527:A 0.00016251
5 *1374:B *129:10 0.000520727
6 *1374:B *201:62 0
7 *119:12 *1482:A 0.000181796
8 *119:12 *152:10 0.000867049
9 *119:12 *189:36 4.13595e-05
10 *119:12 *191:66 0.00146154
11 *119:12 *207:122 0.000111126
12 *37:20 *1374:B 0.000257076
13 *42:16 *1374:B 7.02611e-05
14 *43:16 *1374:B 9.47028e-05
15 *95:98 *1374:B 0.000741443
16 *95:109 *1374:B 0.000585639
17 *115:101 *119:12 0.00040279
*RES
1 *1372:Y *119:12 37.8893 
2 *119:12 *1374:B 34.8179 
*END

*D_NET *120 0.0174075
*CONN
*I *1375:B I *D sky130_fd_sc_hd__or2_1
*I *1376:B I *D sky130_fd_sc_hd__nand2_1
*I *1374:C I *D sky130_fd_sc_hd__nor3_1
*I *1373:X O *D sky130_fd_sc_hd__and3_1
*CAP
1 *1375:B 0
2 *1376:B 3.39029e-05
3 *1374:C 0.000121341
4 *1373:X 0.000703405
5 *120:62 0.000972741
6 *120:20 0.000538329
7 *120:18 0.0023821
8 *120:8 0.00172968
9 *1374:C *129:10 0.000383719
10 *120:8 *221:52 0.000118604
11 *120:18 *1527:A 0.000215408
12 *120:18 *129:10 0.00164408
13 *120:18 *208:61 9.60875e-05
14 *120:18 *219:10 4.19535e-05
15 *120:20 *129:10 0.00116083
16 *120:62 *1339:A1 2.11419e-05
17 *120:62 *1426:A 0.00057557
18 *120:62 *141:14 0.000129377
19 *120:62 *204:41 0.00064757
20 *120:62 *216:18 9.41642e-05
21 *120:62 *224:14 0.000469772
22 *1339:B1 *120:62 0.000107492
23 *1344:B *1374:C 0.000383719
24 *1344:B *120:20 0.000330858
25 *1373:C *120:8 0.000274427
26 *1373:C *120:18 0.000258882
27 *1386:D *120:18 0.000218726
28 *1386:D *120:20 0.000838591
29 *1498:D *120:62 2.93106e-05
30 *1511:D *120:8 3.32631e-05
31 *1521:RESET_B *1376:B 2.59355e-05
32 *27:12 *120:18 0.000265256
33 *53:12 *120:62 0.0012579
34 *80:12 *120:62 0.000591726
35 *95:109 *120:18 0.000692546
36 *103:24 *120:62 1.90936e-05
*RES
1 *1373:X *120:8 27.0679 
2 *120:8 *120:18 39.3393 
3 *120:18 *120:20 15.3036 
4 *120:20 *1374:C 18.7821 
5 *120:20 *1376:B 14.3357 
6 *120:18 *120:62 43.9461 
7 *120:62 *1375:B 9.3 
*END

*D_NET *121 0.00878546
*CONN
*I *1377:B I *D sky130_fd_sc_hd__and3_1
*I *1375:X O *D sky130_fd_sc_hd__or2_1
*CAP
1 *1377:B 0.000968272
2 *1375:X 0.00105036
3 *121:16 0.00201863
4 *1377:B *200:10 0.000604179
5 *121:16 *130:22 0.000527599
6 *1377:A *1377:B 0.000801387
7 *1377:A *121:16 0.000174411
8 *53:12 *121:16 0.000385425
9 *76:36 *1377:B 9.58689e-05
10 *80:12 *121:16 2.68206e-05
11 *85:10 *121:16 0.00033114
12 *87:51 *121:16 0.0003328
13 *107:40 *121:16 0.000998806
14 *115:132 *121:16 0.000469764
*RES
1 *1375:X *121:16 44.1929 
2 *121:16 *1377:B 27.1036 
*END

*D_NET *122 0.00729046
*CONN
*I *1377:C I *D sky130_fd_sc_hd__and3_1
*I *1380:A2 I *D sky130_fd_sc_hd__a211oi_2
*I *1376:Y O *D sky130_fd_sc_hd__nand2_1
*CAP
1 *1377:C 0.000119121
2 *1380:A2 0.00101781
3 *1376:Y 0.000938272
4 *122:10 0.0020752
5 *1377:C *147:16 0.000364191
6 *1377:C *200:10 5.7993e-06
7 *1377:C *207:108 5.73777e-06
8 *1377:C *221:52 0.000342601
9 *1380:A2 *220:102 0.000301438
10 *122:10 *147:16 0.000276229
11 *122:10 *207:108 0.000131141
12 *1380:B1 *1380:A2 0.000290346
13 *1380:C1 *1380:A2 0.00030926
14 *1521:RESET_B *122:10 0.00111332
*RES
1 *1376:Y *122:10 28.3714 
2 *122:10 *1380:A2 30.7821 
3 *122:10 *1377:C 18.675 
*END

*D_NET *123 0.00613668
*CONN
*I *1378:A I *D sky130_fd_sc_hd__buf_1
*I *1377:X O *D sky130_fd_sc_hd__and3_1
*CAP
1 *1378:A 0.00144754
2 *1377:X 0.00105728
3 *123:8 0.00250482
4 *1378:A *1466:A 0
5 *1378:A *1537:A 0
6 *1378:A *1540:A 2.89016e-05
7 *1378:A *124:30 7.29897e-05
8 *123:8 *200:10 0.00046521
9 seg[0] *1378:A 0
10 *43:10 *1378:A 0.000387266
11 *44:10 *1378:A 0.000172681
*RES
1 *1377:X *123:8 27.0679 
2 *123:8 *1378:A 42.9964 
*END

*D_NET *124 0.021102
*CONN
*I *1380:A1 I *D sky130_fd_sc_hd__a211oi_2
*I *1379:Y O *D sky130_fd_sc_hd__inv_2
*CAP
1 *1380:A1 0
2 *1379:Y 0.00726323
3 *124:30 0.00726323
4 *124:30 *1537:A 0.000101812
5 *124:30 *126:28 0.000526341
6 *124:30 *136:8 7.7159e-06
7 *124:30 *155:59 0.000537233
8 *124:30 *164:12 6.27272e-06
9 *124:30 *172:14 0.000911497
10 *124:30 *174:24 0.000583846
11 *124:30 *200:30 2.64379e-06
12 *124:30 *209:39 0
13 *1378:A *124:30 7.29897e-05
14 *1526:RESET_B *124:30 0.00149256
15 *1528:A *124:30 0.00206941
16 *85:22 *124:30 0.00011266
17 *103:24 *124:30 6.68374e-05
18 *109:38 *124:30 8.37583e-05
*RES
1 *1379:Y *124:30 44.7088 
2 *124:30 *1380:A1 9.3 
*END

*D_NET *125 0.00672428
*CONN
*I *1383:A I *D sky130_fd_sc_hd__and3_1
*I *1381:X O *D sky130_fd_sc_hd__or2_1
*CAP
1 *1383:A 0.00104663
2 *1381:X 0.00102741
3 *125:16 0.00207404
4 *1383:A *155:59 0.000109932
5 *1383:A *210:56 1.0792e-05
6 *1383:A *223:25 0.000523779
7 *125:16 *1474:A 5.33005e-05
8 *125:16 *169:26 1.94879e-05
9 *125:16 *180:80 0.000166066
10 *125:16 *215:35 0.000645381
11 *1381:B *125:16 5.33005e-05
12 *1383:B *1383:A 5.41797e-06
13 *1454:B1 *1383:A 2.42516e-05
14 *1513:D *1383:A 0.000163047
15 *44:12 *1383:A 0.000137561
16 *89:14 *125:16 0.000663883
*RES
1 *1381:X *125:16 39.3893 
2 *125:16 *1383:A 32.5857 
*END

*D_NET *126 0.0151242
*CONN
*I *1383:C I *D sky130_fd_sc_hd__and3_1
*I *1382:Y O *D sky130_fd_sc_hd__nand2_1
*CAP
1 *1383:C 0.00107395
2 *1382:Y 0.00387736
3 *126:28 0.00495131
4 *1383:C *1439:B 0.000119824
5 *1383:C *1521:CLK 0.000199555
6 *1383:C *183:77 0.000225742
7 *1383:C *191:28 5.30147e-05
8 *126:28 *1406:C 0.000100329
9 *126:28 *1494:A 0.000224582
10 *126:28 *138:12 2.06178e-05
11 *126:28 *162:26 0.000269213
12 *126:28 *174:24 0.00141425
13 *126:28 *224:59 0.000176806
14 *126:28 *224:65 0.000108889
15 *126:28 *225:35 0.000112793
16 *1383:B *1383:C 1.74352e-05
17 *1507:D *1383:C 0.00032716
18 *1521:D *1383:C 5.72208e-05
19 *1521:RESET_B *1383:C 0.000715193
20 *1526:RESET_B *126:28 4.94017e-05
21 *82:18 *126:28 2.05695e-05
22 *103:24 *126:28 8.80804e-05
23 *104:16 *126:28 0.000394612
24 *124:30 *126:28 0.000526341
*RES
1 *1382:Y *126:28 42.5117 
2 *126:28 *1383:C 31.1393 
*END

*D_NET *127 0.00821958
*CONN
*I *1384:A I *D sky130_fd_sc_hd__buf_1
*I *1383:X O *D sky130_fd_sc_hd__and3_1
*CAP
1 *1384:A 0.000496367
2 *1383:X 0.00124688
3 *127:12 0.00174324
4 *1384:A *129:30 0.000227713
5 *1384:A *189:36 0.00170794
6 *1384:A *220:12 0.000581345
7 *127:12 *1429:C 5.01649e-06
8 *127:12 *1439:B 0.000185124
9 *127:12 *160:35 0.000104021
10 *127:12 *168:24 7.21538e-05
11 *127:12 *187:68 0
12 *1351:B1 *127:12 0.000243382
13 *1449:B1 *127:12 0
14 *1502:D *127:12 0.000185124
15 *1513:D *127:12 0
16 *29:30 *127:12 0
17 *86:32 *127:12 0.000874432
18 *90:22 *127:12 0.000546843
*RES
1 *1383:X *127:12 45.0857 
2 *127:12 *1384:A 25.8536 
*END

*D_NET *128 0.00937358
*CONN
*I *1387:B I *D sky130_fd_sc_hd__nor3_1
*I *1385:Y O *D sky130_fd_sc_hd__a21oi_1
*CAP
1 *1387:B 0
2 *1385:Y 0.000429744
3 *128:22 0.00121826
4 *128:12 0.00164801
5 *128:12 *1398:A 0.000178847
6 *128:12 *1420:B1 2.12451e-06
7 *128:12 *153:28 2.77289e-05
8 *128:12 *156:10 0
9 *128:12 *212:12 0.000524456
10 *128:22 *139:41 0.000660342
11 *128:22 *170:26 0.00055218
12 *128:22 *171:8 0.00205676
13 *128:22 *201:45 0.000812472
14 *128:22 *218:42 0.000195555
15 *36:12 *128:22 0.000814126
16 *115:28 *128:12 9.60939e-05
17 *115:76 *128:12 0.000156886
*RES
1 *1385:Y *128:12 27.9071 
2 *128:12 *128:22 47.125 
3 *128:22 *1387:B 9.3 
*END

*D_NET *129 0.0309853
*CONN
*I *1392:A2 I *D sky130_fd_sc_hd__a21oi_1
*I *1387:C I *D sky130_fd_sc_hd__nor3_1
*I *1393:C I *D sky130_fd_sc_hd__and3_2
*I *1388:B I *D sky130_fd_sc_hd__or2_1
*I *1409:D I *D sky130_fd_sc_hd__and4_1
*I *1389:B I *D sky130_fd_sc_hd__nand2_1
*I *1386:X O *D sky130_fd_sc_hd__and4_2
*CAP
1 *1392:A2 6.16991e-05
2 *1387:C 0.000258724
3 *1393:C 0.000937936
4 *1388:B 0
5 *1409:D 0
6 *1389:B 0.000232395
7 *1386:X 2.25053e-05
8 *129:30 0.00055132
9 *129:24 0.000477161
10 *129:20 0.00123496
11 *129:16 0.00199671
12 *129:12 0.0016609
13 *129:10 0.00178824
14 *129:8 0.00181074
15 *1387:C *130:10 9.91086e-05
16 *1387:C *215:35 0.000538871
17 *1387:C *218:42 0.000139907
18 *1389:B *1389:A 0
19 *1389:B *1409:B 8.12904e-05
20 *1389:B *143:8 5.50052e-05
21 *1389:B *178:18 5.74053e-05
22 *1389:B *200:97 0
23 *1392:A2 *201:62 5.33005e-05
24 *1393:C *1393:A 4.21248e-05
25 *1393:C *1393:B 0.000157156
26 *1393:C *134:12 6.05161e-06
27 *1393:C *134:73 0.00034504
28 *1393:C *135:16 0
29 *1393:C *146:20 0.000191071
30 *1393:C *166:10 0.000164173
31 *1393:C *176:37 0.000417488
32 *1393:C *196:14 0.000732149
33 *129:8 *1394:C 5.33005e-05
34 *129:10 *1343:B 7.18088e-05
35 *129:10 *1440:A2 0.000785122
36 *129:10 *1527:A 0.000282023
37 *129:10 *142:22 0.000559093
38 *129:10 *165:26 0.000137102
39 *129:10 *201:62 1.76135e-05
40 *129:10 *216:18 0.000147844
41 *129:10 *220:89 0.000192269
42 *129:10 *222:18 7.66132e-05
43 *129:16 *1352:B1_N 0.000535247
44 *129:16 *137:10 0.00291335
45 *129:20 *137:10 0.000386121
46 *129:24 *1393:B 8.51942e-05
47 *129:24 *200:97 4.46186e-06
48 *129:30 *146:20 1.21859e-05
49 *129:30 *178:18 5.90443e-06
50 *129:30 *200:97 0
51 *1334:A *129:16 0.00212637
52 *1334:B *129:16 0.000374229
53 *1334:B *129:20 6.05161e-06
54 *1344:B *129:10 9.05174e-05
55 *1374:B *129:10 0.000520727
56 *1374:C *129:10 0.000383719
57 *1384:A *129:30 0.000227713
58 *1386:D *129:10 7.7299e-05
59 *1397:A *129:20 0.000119774
60 *22:12 *129:8 1.58163e-05
61 *27:12 *129:10 0.000704788
62 *36:12 *1387:C 0.000137983
63 *37:20 *129:10 0.000255547
64 *95:83 *129:16 0.000172558
65 *95:98 *129:16 0.000708568
66 *95:109 *129:10 0.000367624
67 *98:14 *129:24 0
68 *98:14 *129:30 0.000386362
69 *100:14 *129:10 4.02051e-05
70 *111:10 *1387:C 0.00021908
71 *116:10 *1392:A2 4.35336e-05
72 *116:10 *129:16 0.000823243
73 *120:18 *129:10 0.00164408
74 *120:20 *129:10 0.00116083
*RES
1 *1386:X *129:8 14.3357 
2 *129:8 *129:10 58.4107 
3 *129:10 *129:12 4.5 
4 *129:12 *129:16 49.7321 
5 *129:16 *129:20 8.32143 
6 *129:20 *129:24 7.05357 
7 *129:24 *129:30 11.9643 
8 *129:30 *1389:B 18.7107 
9 *129:30 *1409:D 13.8 
10 *129:24 *1388:B 9.3 
11 *129:20 *1393:C 36.2286 
12 *129:16 *1387:C 26.7643 
13 *129:12 *1392:A2 10.6571 
*END

*D_NET *130 0.0154634
*CONN
*I *1390:B I *D sky130_fd_sc_hd__and3_1
*I *1388:X O *D sky130_fd_sc_hd__or2_1
*CAP
1 *1390:B 0
2 *1388:X 0.00113852
3 *130:22 0.00359976
4 *130:10 0.00473828
5 *130:10 *1474:A 5.29836e-05
6 *130:10 *194:12 0
7 *130:10 *215:35 2.14474e-05
8 *1332:B *130:22 0.000305986
9 *1362:A *130:10 4.99283e-06
10 *1387:C *130:10 9.91086e-05
11 *33:16 *130:22 0.000247648
12 *54:24 *130:22 6.84104e-05
13 *60:20 *130:10 0.000572085
14 *88:6 *130:22 2.10824e-05
15 *88:14 *130:22 0.00012417
16 *89:14 *130:10 0.0024762
17 *94:10 *130:10 0.000185442
18 *95:12 *130:10 0.000180777
19 *105:130 *130:10 0.000128675
20 *107:40 *130:22 1.77089e-05
21 *109:18 *130:22 0.00010512
22 *111:10 *130:10 0.000847431
23 *121:16 *130:22 0.000527599
*RES
1 *1388:X *130:10 49.6929 
2 *130:10 *130:22 47.625 
3 *130:22 *1390:B 9.3 
*END

*D_NET *131 0.0198973
*CONN
*I *1390:C I *D sky130_fd_sc_hd__and3_1
*I *1389:Y O *D sky130_fd_sc_hd__nand2_1
*CAP
1 *1390:C 0.000264584
2 *1389:Y 0.00705649
3 *131:26 0.00732107
4 *131:26 *1336:A1 0.000169202
5 *131:26 *1508:CLK 2.42516e-05
6 *131:26 *153:28 0.000135739
7 *131:26 *157:10 8.01988e-05
8 *131:26 *162:26 0
9 *131:26 *182:12 5.5838e-05
10 *131:26 *182:66 0
11 *131:26 *185:16 4.18858e-05
12 *131:26 *217:10 0.000274242
13 *1346:D *131:26 0
14 *1377:A *1390:C 9.09917e-05
15 *1519:RESET_B *131:26 0.000490532
16 *23:12 *131:26 0.000296678
17 *39:22 *131:26 0.000724145
18 *78:12 *131:26 0.000125449
19 *81:14 *131:26 1.94879e-05
20 *85:22 *131:26 0.000256441
21 *87:24 *131:26 0.000182244
22 *104:16 *131:26 0.0018423
23 *107:40 *131:26 9.15842e-06
24 *109:38 *131:26 0.000173564
25 *110:24 *131:26 0
26 *115:132 *1390:C 0.000262841
27 *117:20 *131:26 0
*RES
1 *1389:Y *131:26 49.4988 
2 *131:26 *1390:C 12.7821 
*END

*D_NET *132 0.00603443
*CONN
*I *1391:A I *D sky130_fd_sc_hd__clkbuf_1
*I *1390:X O *D sky130_fd_sc_hd__and3_1
*CAP
1 *1391:A 0
2 *1390:X 0.0010268
3 *132:14 0.0010268
4 *132:14 *1347:D 0.000219289
5 *132:14 *1452:A2 0.00043181
6 *132:14 *138:12 0.000927113
7 *132:14 *142:34 0.00093632
8 *132:14 *174:24 0.000720844
9 *132:14 *179:110 4.22135e-06
10 *132:14 *180:31 6.23866e-05
11 *1377:A *132:14 2.08721e-05
12 *57:10 *132:14 0.000592284
13 *104:41 *132:14 6.57032e-05
*RES
1 *1390:X *132:14 48.925 
2 *132:14 *1391:A 9.3 
*END

*D_NET *133 0.00944138
*CONN
*I *1394:B I *D sky130_fd_sc_hd__nor3_1
*I *1392:Y O *D sky130_fd_sc_hd__a21oi_1
*CAP
1 *1394:B 4.87115e-05
2 *1392:Y 0.000135704
3 *133:10 0.00301218
4 *133:8 0.00309917
5 *1394:B *1394:C 3.67257e-05
6 *133:8 *200:30 6.70818e-05
7 *133:8 *201:62 4.85049e-06
8 *133:10 *1364:A2 5.15308e-05
9 *133:10 *1364:A3 0.000191938
10 *133:10 *1422:C 7.85137e-05
11 *133:10 *1487:A 0.000273157
12 *133:10 *145:12 0
13 *133:10 *179:39 5.20128e-05
14 *133:10 *181:151 0.000143143
15 *133:10 *181:162 0.00018213
16 *133:10 *200:10 0
17 *133:10 *200:30 0
18 *133:10 *207:81 0.000186418
19 *133:10 *208:69 0.000145477
20 *133:10 *209:72 0.000742209
21 *1394:A *133:10 0
22 *22:12 *1394:B 9.90431e-05
23 *35:12 *133:10 0
24 *47:95 *133:10 0
25 *76:20 *133:10 0
26 *76:36 *133:10 0
27 *84:12 *133:10 0.000404319
28 *116:10 *133:8 0.000487069
*RES
1 *1392:Y *133:8 18.4429 
2 *133:8 *133:10 58.4107 
3 *133:10 *1394:B 15.1571 
*END

*D_NET *134 0.0321739
*CONN
*I *1399:A2 I *D sky130_fd_sc_hd__a21o_1
*I *1395:B I *D sky130_fd_sc_hd__or2_1
*I *1394:C I *D sky130_fd_sc_hd__nor3_1
*I *1400:C I *D sky130_fd_sc_hd__nand3_2
*I *1396:B I *D sky130_fd_sc_hd__nand2_1
*I *1393:X O *D sky130_fd_sc_hd__and3_2
*CAP
1 *1399:A2 0.000360047
2 *1395:B 0.000281207
3 *1394:C 0.000885455
4 *1400:C 0
5 *1396:B 0.000419133
6 *1393:X 0
7 *134:73 0.00159598
8 *134:47 0.00152104
9 *134:37 0.00208566
10 *134:14 0.00186921
11 *134:12 0.00136054
12 *134:4 0.00231527
13 *1394:C *1386:A 0.000467587
14 *1394:C *1386:B 0.000531286
15 *1395:B *1395:A 0.000269298
16 *1395:B *188:90 0.000121799
17 *1399:A2 *1395:A 0.000378266
18 *1399:A2 *1399:A1 0.000552531
19 *1399:A2 *153:28 6.96806e-05
20 *1399:A2 *202:57 3.34366e-05
21 *1399:A2 *222:18 0.000178847
22 *134:12 *201:14 0.000880001
23 *134:37 *1400:A 3.34366e-05
24 *134:37 *146:20 0.000102429
25 *134:37 *151:14 0
26 *134:37 *153:10 0
27 *134:37 *187:12 7.88091e-05
28 *134:47 *1386:A 0.000139907
29 *134:47 *1400:A 0.00217366
30 *134:47 *213:25 0.0010234
31 *134:73 *1393:A 2.99316e-05
32 *134:73 *1393:B 0.000229365
33 *134:73 *1430:A 0.000219366
34 *134:73 *144:14 0.000259167
35 *134:73 *153:28 9.94194e-05
36 *134:73 *183:18 0.00117488
37 *134:73 *183:51 9.66977e-05
38 *134:73 *187:68 0.000437886
39 *230:DIODE *1394:C 0.000226804
40 *1365:B *134:37 2.84906e-05
41 *1365:C *134:37 9.25014e-06
42 *1386:D *1394:C 0.000222666
43 *1393:C *134:12 6.05161e-06
44 *1393:C *134:73 0.00034504
45 *1394:B *1394:C 3.67257e-05
46 *1503:D *134:12 0
47 *1504:RESET_B *1395:B 9.54798e-06
48 *1512:RESET_B *134:47 0.000182598
49 *1514:RESET_B *1399:A2 0.000276773
50 *1521:D *1399:A2 0.00040073
51 *1522:D *1395:B 0.000280305
52 *20:10 *134:12 0.00321911
53 *20:10 *134:37 0
54 *20:18 *134:37 0.00156932
55 *22:12 *1394:C 0.000200628
56 *22:12 *134:47 0.000218396
57 *32:8 *134:73 0.00054516
58 *38:12 *1395:B 3.35685e-06
59 *41:18 *134:12 0.000340464
60 *41:18 *134:37 0.000210801
61 *45:14 *134:12 0.000497992
62 *47:28 *1395:B 5.36422e-05
63 *47:45 *134:73 1.52217e-05
64 *49:12 *1399:A2 0.000126907
65 *49:12 *134:73 0.000257619
66 *94:22 *134:73 0.000137417
67 *95:113 *1394:C 5.49489e-05
68 *98:12 *134:12 0
69 *105:66 *134:73 0.000218679
70 *114:18 *134:12 0
71 *114:18 *134:37 0.00015136
72 *129:8 *1394:C 5.33005e-05
*RES
1 *1393:X *134:4 9.3 
2 *134:4 *134:12 47.2857 
3 *134:12 *134:14 4.5 
4 *134:14 *1396:B 15.9964 
5 *134:14 *134:37 48.1607 
6 *134:37 *134:47 25.3571 
7 *134:47 *1400:C 9.3 
8 *134:47 *1394:C 30.4071 
9 *134:4 *134:73 28.6429 
10 *134:73 *1395:B 26.0143 
11 *134:73 *1399:A2 30.4071 
*END

*D_NET *135 0.0069842
*CONN
*I *1397:B I *D sky130_fd_sc_hd__and3_1
*I *1395:X O *D sky130_fd_sc_hd__or2_1
*CAP
1 *1397:B 0.000363983
2 *1395:X 0.00147865
3 *135:16 0.00184263
4 *1397:B *137:10 0.000522619
5 *135:16 *1429:B 0.000497256
6 *135:16 *1429:C 0.0001675
7 *135:16 *146:20 0.000124557
8 *135:16 *176:37 8.63973e-05
9 *135:16 *214:46 0.000845286
10 *1393:C *135:16 0
11 *1429:A *135:16 0.000129239
12 *90:22 *135:16 6.87979e-05
13 *98:14 *135:16 0.000676256
14 *105:45 *135:16 0.00018103
*RES
1 *1395:X *135:16 49.2643 
2 *135:16 *1397:B 14.3536 
*END

*D_NET *136 0.00951202
*CONN
*I *1397:C I *D sky130_fd_sc_hd__and3_1
*I *1396:Y O *D sky130_fd_sc_hd__nand2_1
*CAP
1 *1397:C 0.00048959
2 *1396:Y 0
3 *136:8 0.00255181
4 *136:6 0.00206222
5 *1397:C *137:10 1.87417e-05
6 *136:8 *1345:A 4.51883e-05
7 *136:8 *1345:C 0.000177319
8 *136:8 *1396:A 0.000290871
9 *136:8 *164:12 0
10 *136:8 *172:14 0
11 *136:8 *204:66 0.000150103
12 *136:8 *209:14 0.000143327
13 *136:8 *219:16 0.00357513
14 *124:30 *136:8 7.7159e-06
*RES
1 *1396:Y *136:6 13.8 
2 *136:6 *136:8 54.4643 
3 *136:8 *1397:C 19.1482 
*END

*D_NET *137 0.0118416
*CONN
*I *1398:A I *D sky130_fd_sc_hd__buf_1
*I *1397:X O *D sky130_fd_sc_hd__and3_1
*CAP
1 *1398:A 0.00030669
2 *1397:X 0.00273567
3 *137:10 0.00304236
4 *1398:A *153:28 0.000735774
5 *1398:A *189:32 0.000234416
6 *1337:B *1398:A 0
7 *1397:A *137:10 0.000224258
8 *1397:B *137:10 0.000522619
9 *1397:C *137:10 1.87417e-05
10 *115:28 *1398:A 0.00054277
11 *128:12 *1398:A 0.000178847
12 *129:16 *137:10 0.00291335
13 *129:20 *137:10 0.000386121
*RES
1 *1397:X *137:10 49.8179 
2 *137:10 *1398:A 28.5679 
*END

*D_NET *138 0.0143672
*CONN
*I *1401:B I *D sky130_fd_sc_hd__and3_1
*I *1399:X O *D sky130_fd_sc_hd__a21o_1
*CAP
1 *1401:B 0.00209217
2 *1399:X 0.000416751
3 *138:12 0.00324565
4 *138:8 0.00157023
5 *1401:B *200:44 0.000827017
6 *138:8 *1399:B1 5.52302e-05
7 *138:8 *155:18 0.000929165
8 *138:8 *203:12 0.00167858
9 *138:8 *209:39 0.000727773
10 *138:8 *214:34 3.75081e-05
11 *138:12 *1349:A1 0
12 *138:12 *1352:B1_N 0.000168089
13 *138:12 *1452:A2 9.23895e-06
14 *138:12 *167:22 0.000236625
15 *138:12 *180:31 0.00104068
16 *104:16 *138:12 0.000333196
17 *104:41 *138:12 5.15944e-05
18 *126:28 *138:12 2.06178e-05
19 *132:14 *138:12 0.000927113
*RES
1 *1399:X *138:8 30.7643 
2 *138:8 *138:12 35.2857 
3 *138:12 *1401:B 44.1036 
*END

*D_NET *139 0.0337266
*CONN
*I *1404:B I *D sky130_fd_sc_hd__nand2_1
*I *1405:B I *D sky130_fd_sc_hd__or2_1
*I *232:DIODE I *D sky130_fd_sc_hd__diode_2
*I *1401:C I *D sky130_fd_sc_hd__and3_1
*I *1400:Y O *D sky130_fd_sc_hd__nand3_2
*CAP
1 *1404:B 0.000156537
2 *1405:B 0
3 *232:DIODE 6.22537e-05
4 *1401:C 0.00130827
5 *1400:Y 0.00157161
6 *139:55 0.00156212
7 *139:41 0.00388242
8 *139:26 0.00825053
9 *139:14 0.00628785
10 *232:DIODE *216:70 5.45307e-05
11 *1401:C *1494:A 9.33677e-05
12 *1401:C *200:44 0.000292715
13 *1404:B *1364:B1 4.99138e-05
14 *1404:B *1415:A 0.000106136
15 *139:14 *1415:A 0.00142331
16 *139:14 *207:26 0
17 *139:14 *207:79 5.9061e-05
18 *139:14 *226:56 0.000110841
19 *139:26 *1443:B 4.73891e-05
20 *139:26 *1527:A 0.000367692
21 *139:26 *145:12 0
22 *139:26 *200:44 0.000467905
23 *139:41 *1406:C 7.32272e-05
24 *139:41 *1411:A2 0.000805146
25 *139:41 *170:26 0.000823649
26 *139:55 *1351:C1 0.000829187
27 *139:55 *1405:A 2.59355e-05
28 *139:55 *143:8 0.00103386
29 *139:55 *216:54 0
30 *139:55 *218:42 0
31 *1351:B1 *139:55 0.000457695
32 *1362:B *139:55 0.000139331
33 *1401:A *1401:C 0.000478034
34 *1503:RESET_B *139:14 0.000314813
35 *1510:RESET_B *1404:B 5.7836e-06
36 *22:12 *139:14 0.000392013
37 *27:12 *1404:B 4.94947e-05
38 *52:16 *1401:C 0.00105281
39 *76:50 *139:14 0.00027946
40 *87:18 *139:26 1.25084e-05
41 *100:14 *139:26 0.000138866
42 *128:22 *139:41 0.000660342
*RES
1 *1400:Y *139:14 32.1253 
2 *139:14 *139:26 28.128 
3 *139:26 *1401:C 34.0054 
4 *139:26 *139:41 47.3393 
5 *139:41 *139:55 36.3214 
6 *139:55 *232:DIODE 10.6571 
7 *139:55 *1405:B 9.3 
8 *139:14 *1404:B 18.6157 
*END

*D_NET *140 0.00905148
*CONN
*I *1402:A I *D sky130_fd_sc_hd__clkbuf_1
*I *1401:X O *D sky130_fd_sc_hd__and3_1
*CAP
1 *1402:A 0.00106586
2 *1401:X 0.00094652
3 *140:12 0.00201238
4 *1402:A *165:26 0.000349543
5 *49:12 *1402:A 0.000883165
6 *52:16 *140:12 0.000525338
7 *116:10 *140:12 0.00073594
8 *117:26 *140:12 0.000605765
9 *118:10 *140:12 0.00192697
*RES
1 *1401:X *140:12 48.3714 
2 *140:12 *1402:A 29.55 
*END

*D_NET *141 0.0239663
*CONN
*I *1404:A I *D sky130_fd_sc_hd__nand2_1
*I *1405:A I *D sky130_fd_sc_hd__or2_1
*I *1403:Y O *D sky130_fd_sc_hd__inv_2
*CAP
1 *1404:A 0
2 *1405:A 3.11806e-05
3 *1403:Y 0
4 *141:43 0.00113884
5 *141:16 0.00218879
6 *141:14 0.00502924
7 *141:4 0.00401047
8 *141:14 *1339:A2 1.94879e-05
9 *141:14 *1426:A 5.68065e-05
10 *141:14 *150:30 0.000137507
11 *141:14 *225:35 6.27272e-06
12 *141:16 *1519:CLK 0.000195126
13 *141:16 *151:14 2.49484e-05
14 *141:16 *164:12 0
15 *141:16 *172:14 0
16 *141:16 *183:18 0.000545443
17 *141:16 *183:20 0.00114323
18 *141:16 *216:70 4.72217e-05
19 *141:43 *142:22 9.41642e-05
20 *141:43 *149:14 0.000143439
21 *141:43 *204:41 0.000383166
22 *141:43 *205:10 0.000557982
23 *141:43 *205:50 7.63002e-05
24 *141:43 *212:40 0.000195506
25 *1498:D *141:14 0.00287846
26 *1503:D *141:14 2.34525e-05
27 *1510:D *141:43 7.60692e-05
28 *1510:RESET_B *141:43 0.000304394
29 *1524:RESET_B *141:43 0.000145161
30 *20:10 *141:16 0
31 *28:10 *141:16 0.00143995
32 *39:22 *141:14 0.000321598
33 *84:14 *141:43 0.000668597
34 *84:20 *141:43 9.41642e-05
35 *95:109 *141:43 0.000623561
36 *108:18 *141:14 0.00121044
37 *120:62 *141:14 0.000129377
38 *139:55 *1405:A 2.59355e-05
*RES
1 *1403:Y *141:4 9.3 
2 *141:4 *141:14 19.9315 
3 *141:14 *141:16 50.9732 
4 *141:16 *1405:A 14.3357 
5 *141:4 *141:43 42.6071 
6 *141:43 *1404:A 9.3 
*END

*D_NET *142 0.0101169
*CONN
*I *1406:B I *D sky130_fd_sc_hd__and3_1
*I *1404:Y O *D sky130_fd_sc_hd__nand2_1
*CAP
1 *1406:B 0
2 *1404:Y 0.000537998
3 *142:34 0.00132289
4 *142:22 0.00186089
5 *142:34 *1452:A2 0.000799214
6 *142:34 *1534:A 0.000190738
7 *142:34 *155:18 0.000844482
8 *142:34 *174:24 1.03904e-05
9 *142:34 *179:10 7.83587e-05
10 *142:34 *179:110 7.22051e-05
11 *142:34 *179:131 8.14438e-05
12 *142:34 *188:21 0.000922553
13 *142:34 *204:41 0.000146474
14 *142:34 *225:35 8.00806e-05
15 *1386:D *142:22 0.000552832
16 *1510:D *142:22 9.30682e-05
17 *1510:RESET_B *142:22 1.21258e-05
18 *50:22 *142:22 0.000307349
19 *84:14 *142:22 0.00059828
20 *117:20 *142:34 1.59498e-05
21 *129:10 *142:22 0.000559093
22 *132:14 *142:34 0.00093632
23 *141:43 *142:22 9.41642e-05
*RES
1 *1404:Y *142:22 38.425 
2 *142:22 *142:34 45.4643 
3 *142:34 *1406:B 9.3 
*END

*D_NET *143 0.0187572
*CONN
*I *1411:A2 I *D sky130_fd_sc_hd__a211oi_1
*I *1406:C I *D sky130_fd_sc_hd__and3_1
*I *1405:X O *D sky130_fd_sc_hd__or2_1
*CAP
1 *1411:A2 0.00105421
2 *1406:C 0.000807363
3 *1405:X 0.000526965
4 *143:24 0.00195958
5 *143:20 0.00173443
6 *143:8 0.00216338
7 *1406:C *1385:B1 0.000378146
8 *1406:C *155:32 0.000842453
9 *1406:C *179:10 0.000433269
10 *1406:C *179:24 0.000219902
11 *1406:C *207:122 0.00014778
12 *1406:C *224:59 9.32457e-06
13 *1406:C *224:65 0
14 *1406:C *225:35 0.00069847
15 *1411:A2 *1411:A1 0.00031137
16 *143:8 *1351:C1 0.000655628
17 *143:8 *1389:A 9.67754e-05
18 *143:20 *1336:A1 0.000916549
19 *143:20 *1336:B1 5.66971e-05
20 *143:20 *1351:C1 6.77339e-05
21 *143:20 *1471:A 0
22 *143:20 *156:10 0.000102046
23 *143:24 *207:122 0.000138341
24 *143:24 *224:65 0.00026746
25 *1337:B *143:20 0.000121573
26 *1349:A3 *143:20 0
27 *1362:A *143:8 2.85234e-05
28 *1362:C *143:8 9.50968e-06
29 *1389:B *143:8 5.50052e-05
30 *1411:C1 *1411:A2 5.52302e-05
31 *1508:RESET_B *1406:C 1.95435e-05
32 *31:14 *143:20 0.000604554
33 *91:16 *143:20 0
34 *94:22 *143:8 0.000441021
35 *101:14 *143:20 0.000615169
36 *102:16 *143:8 3.47793e-05
37 *102:16 *143:20 0.000943123
38 *104:16 *143:20 0.000132821
39 *105:20 *1406:C 5.35558e-05
40 *112:18 *143:8 2.83425e-05
41 *115:22 *1406:C 1.39928e-05
42 *126:28 *1406:C 0.000100329
43 *139:41 *1406:C 7.32272e-05
44 *139:41 *1411:A2 0.000805146
45 *139:55 *143:8 0.00103386
*RES
1 *1405:X *143:8 26.5857 
2 *143:8 *143:20 48.4107 
3 *143:20 *143:24 7.96429 
4 *143:24 *1406:C 40.925 
5 *143:24 *1411:A2 31.6036 
*END

*D_NET *144 0.0158438
*CONN
*I *1407:A I *D sky130_fd_sc_hd__buf_1
*I *1406:X O *D sky130_fd_sc_hd__and3_1
*CAP
1 *1407:A 0.000243843
2 *1406:X 2.89912e-05
3 *144:26 0.00174926
4 *144:14 0.004048
5 *144:10 0.00257158
6 *1407:A *1342:A 0.000228266
7 *1407:A *1342:C 0.000353865
8 *1407:A *1342:D 0.000576723
9 *1407:A *218:42 0.000354902
10 *1407:A *219:20 3.28516e-05
11 *144:10 *212:12 7.83659e-05
12 *144:10 *225:35 7.83659e-05
13 *144:14 *1430:A 6.58013e-05
14 *144:14 *153:28 0.00121984
15 *144:14 *187:68 0.000436245
16 *144:26 *1409:A 8.07951e-05
17 *144:26 *183:20 0
18 *144:26 *201:16 0.000117903
19 *144:26 *210:33 2.78822e-05
20 *144:26 *216:42 0.00151013
21 *78:12 *144:14 0.000690936
22 *88:74 *144:14 7.48087e-05
23 *94:22 *144:26 0.000798532
24 *105:66 *144:14 0.000216755
25 *134:73 *144:14 0.000259167
*RES
1 *1406:X *144:10 19.3357 
2 *144:10 *144:14 37.4821 
3 *144:14 *144:26 46.8036 
4 *144:26 *1407:A 19.425 
*END

*D_NET *145 0.00663262
*CONN
*I *1411:A1 I *D sky130_fd_sc_hd__a211oi_1
*I *1408:Y O *D sky130_fd_sc_hd__inv_2
*CAP
1 *1411:A1 0.00042244
2 *1408:Y 0.00125862
3 *145:12 0.00168106
4 *145:12 *1347:A_N 5.86614e-05
5 *145:12 *1347:B 0.000211054
6 *145:12 *1408:A 0.000451455
7 *145:12 *1487:A 0
8 *145:12 *168:36 0.000720176
9 *145:12 *181:151 9.41642e-05
10 *145:12 *200:30 0.000519022
11 *1344:A *145:12 0.000599941
12 *1411:A2 *1411:A1 0.00031137
13 *1411:C1 *1411:A1 1.74352e-05
14 *37:20 *145:12 0.000262834
15 *97:10 *145:12 2.43875e-05
16 *100:14 *145:12 0
17 *133:10 *145:12 0
18 *139:26 *145:12 0
*RES
1 *1408:Y *145:12 47.1036 
2 *145:12 *1411:A1 15.175 
*END

*D_NET *146 0.0306119
*CONN
*I *1410:A I *D sky130_fd_sc_hd__clkbuf_4
*I *233:DIODE I *D sky130_fd_sc_hd__diode_2
*I *1409:X O *D sky130_fd_sc_hd__and4_1
*CAP
1 *1410:A 7.38483e-05
2 *233:DIODE 0
3 *1409:X 0.0130814
4 *146:26 9.32066e-05
5 *146:20 0.0131008
6 *1410:A *147:10 0.000232399
7 *146:20 *1393:B 0.000241348
8 *146:20 *1527:A 0
9 *146:20 *166:10 0.000430809
10 *146:20 *168:24 0.000119898
11 *146:20 *168:55 0.000211203
12 *146:20 *169:26 0
13 *146:20 *176:12 0.000125162
14 *146:20 *176:37 0.000225399
15 *146:20 *191:16 0.000279934
16 *146:20 *196:14 0.000407024
17 *1346:D *146:20 5.85882e-05
18 *1362:A *146:20 0.00013668
19 *1393:C *146:20 0.000191071
20 *1509:D *146:20 0
21 *1515:D *146:20 0.000121549
22 *1528:A *146:20 0
23 *20:18 *146:20 0.000144621
24 *25:18 *146:20 0
25 *32:16 *146:20 0.000352537
26 *41:18 *146:20 0
27 *47:91 *146:20 0
28 *94:10 *146:20 0.000108996
29 *98:14 *146:20 0.000103524
30 *106:27 *146:20 0.000416588
31 *114:18 *146:20 0.000116155
32 *129:30 *146:20 1.21859e-05
33 *134:37 *146:20 0.000102429
34 *135:16 *146:20 0.000124557
*RES
1 *1409:X *146:20 49.4988 
2 *146:20 *146:26 8.18679 
3 *146:26 *233:DIODE 9.3 
4 *146:26 *1410:A 11.4786 
*END

*D_NET *147 0.0406643
*CONN
*I *1432:C I *D sky130_fd_sc_hd__and4_1
*I *1412:B I *D sky130_fd_sc_hd__or2_1
*I *1413:B I *D sky130_fd_sc_hd__nand2_2
*I *1419:A3 I *D sky130_fd_sc_hd__a31o_1
*I *1442:B I *D sky130_fd_sc_hd__and3_2
*I *1441:A1 I *D sky130_fd_sc_hd__a21oi_2
*I *1421:A4 I *D sky130_fd_sc_hd__a41o_1
*I *1440:B2 I *D sky130_fd_sc_hd__a221oi_1
*I *1423:A I *D sky130_fd_sc_hd__and2_1
*I *1411:B1 I *D sky130_fd_sc_hd__a211oi_1
*I *1410:X O *D sky130_fd_sc_hd__clkbuf_4
*CAP
1 *1432:C 0
2 *1412:B 0
3 *1413:B 0
4 *1419:A3 0
5 *1442:B 0
6 *1441:A1 0.000986546
7 *1421:A4 0.00059749
8 *1440:B2 8.11454e-05
9 *1423:A 0.00148402
10 *1411:B1 2.77489e-05
11 *1410:X 0.0013989
12 *147:84 0.00211574
13 *147:76 0.00168461
14 *147:74 0.0015233
15 *147:68 0.00103488
16 *147:66 0.000464988
17 *147:18 0.00178164
18 *147:16 0.00154766
19 *147:14 0.00183912
20 *147:12 0.000671665
21 *147:10 0.0016276
22 *1421:A4 *1421:A3 0.00112404
23 *1423:A *1487:A 0
24 *1440:B2 *1331:A 8.70594e-05
25 *1440:B2 *1440:B1 1.76434e-05
26 *1440:B2 *1540:A 0.000221634
27 *1441:A1 *1441:B1 9.60875e-05
28 *1441:A1 *1442:A 3.55552e-05
29 *1441:A1 *1442:C 2.87555e-06
30 *1441:A1 *1473:A 9.60103e-05
31 *1441:A1 *1506:CLK 0.000116584
32 *1441:A1 *153:10 0.000608293
33 *1441:A1 *170:14 1.58163e-05
34 *1441:A1 *180:70 0.000278088
35 *1441:A1 *180:80 0.00018305
36 *1441:A1 *187:22 0.00046218
37 *1441:A1 *187:34 0.000144398
38 *1441:A1 *202:6 5.33005e-05
39 *1441:A1 *202:57 0.000180777
40 *147:10 *1432:D 1.00887e-05
41 *147:10 *221:52 0.000256418
42 *147:12 *1432:D 0.000759854
43 *147:12 *212:40 0.000750603
44 *147:14 *1432:D 0.000176234
45 *147:14 *212:40 0.000167691
46 *147:16 *1432:D 0.000159689
47 *147:16 *155:12 0.00160526
48 *147:16 *207:108 0.00073142
49 *147:16 *212:40 0.000292708
50 *147:16 *221:52 0.000280192
51 *147:18 *207:108 0.000223615
52 *147:66 *206:69 0.000984349
53 *147:66 *207:79 0.000175231
54 *147:66 *218:96 0.000128409
55 *147:68 *206:58 0.000181796
56 *147:68 *206:69 8.17274e-05
57 *147:74 *1435:A 6.24997e-05
58 *147:74 *149:46 0
59 *147:74 *188:21 4.68745e-05
60 *147:74 *205:50 0
61 *147:76 *1419:A2 0.000137983
62 *147:76 *1467:A 0.000346541
63 *147:76 *1469:A 0.000185118
64 *147:76 *207:26 0.000991688
65 *147:84 *1333:A1_N 0.00014101
66 *147:84 *170:14 4.70078e-05
67 *147:84 *188:59 0.000645697
68 *147:84 *188:65 0.000163475
69 *147:84 *204:10 0.000445429
70 *147:84 *204:24 8.33586e-05
71 *147:84 *206:16 6.057e-07
72 *147:84 *208:108 0
73 *1348:C *1423:A 0.000626714
74 *1373:C *147:74 0
75 *1377:C *147:16 0.000364191
76 *1410:A *147:10 0.000232399
77 *1411:C1 *1411:B1 5.52238e-05
78 *1411:C1 *1423:A 0
79 *1411:C1 *147:18 4.27838e-05
80 *1440:C1 *1440:B2 5.33005e-05
81 *1506:D *1441:A1 6.65443e-05
82 *1506:RESET_B *1441:A1 0.000557404
83 *1507:RESET_B *1441:A1 0.000576118
84 *26:8 *147:16 0.000415918
85 *26:8 *147:18 0.000190257
86 *51:8 *147:74 0.000141447
87 *52:16 *1423:A 2.79978e-05
88 *69:8 *147:76 0.00222458
89 *93:14 *147:74 0.000788732
90 *95:109 *147:74 0
91 *106:27 *147:10 0.000214455
92 *107:20 *147:66 0.000376218
93 *107:20 *147:68 0.000262498
94 *110:24 *147:84 9.58181e-05
95 *118:10 *1423:A 0.00022246
96 *118:18 *147:10 0
97 *122:10 *147:16 0.000276229
*RES
1 *1410:X *147:10 34.3893 
2 *147:10 *147:12 9.83929 
3 *147:12 *147:14 2.25 
4 *147:14 *147:16 39.2857 
5 *147:16 *147:18 7.41071 
6 *147:18 *1411:B1 14.3357 
7 *147:18 *1423:A 42.7464 
8 *147:16 *1440:B2 16.4071 
9 *147:14 *1421:A4 25.4429 
10 *147:12 *147:66 16.5357 
11 *147:66 *147:68 2.58929 
12 *147:68 *147:74 28.25 
13 *147:74 *147:76 23.125 
14 *147:76 *147:84 30.6786 
15 *147:84 *1441:A1 45.3357 
16 *147:84 *1442:B 9.3 
17 *147:76 *1419:A3 9.3 
18 *147:68 *1413:B 9.3 
19 *147:66 *1412:B 9.3 
20 *147:10 *1432:C 13.8 
*END

*D_NET *148 0.0171573
*CONN
*I *1414:B I *D sky130_fd_sc_hd__and3_1
*I *1412:X O *D sky130_fd_sc_hd__or2_1
*CAP
1 *1414:B 0
2 *1412:X 0.00269165
3 *148:20 0.00151231
4 *148:14 0.00420396
5 *148:14 *205:10 9.59532e-06
6 *148:14 *206:49 0.00227249
7 *148:14 *208:61 9.15954e-05
8 *148:14 *210:91 6.07555e-05
9 *148:14 *219:14 0.000444169
10 *148:20 *1340:A 0.000729701
11 *148:20 *167:12 2.84787e-05
12 *148:20 *193:14 0.000170419
13 *148:20 *208:16 9.15186e-06
14 *148:20 *210:33 7.9765e-05
15 *148:20 *216:42 0.000375699
16 *148:20 *218:30 0.00141637
17 *148:20 *225:12 0.000181803
18 *1414:A *148:20 5.33978e-05
19 *1498:D *148:14 0
20 *1503:D *148:14 0.000916006
21 *51:8 *148:14 2.06112e-05
22 *54:24 *148:20 0.00091428
23 *88:14 *148:20 6.94441e-06
24 *103:61 *148:20 0.00060151
25 *105:45 *148:20 0.000265764
26 *105:49 *148:20 8.03749e-05
27 *105:107 *148:20 2.04866e-05
*RES
1 *1412:X *148:14 28.3667 
2 *148:14 *148:20 45.7054 
3 *148:20 *1414:B 9.3 
*END

*D_NET *149 0.026851
*CONN
*I *1416:B I *D sky130_fd_sc_hd__xor2_1
*I *1414:C I *D sky130_fd_sc_hd__and3_1
*I *1420:A2 I *D sky130_fd_sc_hd__o211a_1
*I *1413:Y O *D sky130_fd_sc_hd__nand2_2
*CAP
1 *1416:B 0
2 *1414:C 0
3 *1420:A2 0.000110039
4 *1413:Y 2.15381e-05
5 *149:54 0.00118781
6 *149:46 0.00233004
7 *149:35 0.0022321
8 *149:14 0.00389399
9 *149:6 0.00271561
10 *1420:A2 *152:10 9.54798e-06
11 *1420:A2 *157:16 8.67966e-05
12 *1420:A2 *191:43 9.13991e-05
13 *149:6 *218:96 9.71197e-05
14 *149:14 *1455:A 0.000128571
15 *149:14 *157:10 5.8317e-05
16 *149:14 *157:16 0.000782782
17 *149:14 *191:41 0.00019507
18 *149:14 *191:43 0.000363954
19 *149:14 *206:58 1.05731e-05
20 *149:14 *207:79 7.63002e-05
21 *149:14 *218:96 0.000123959
22 *149:14 *224:8 5.33005e-05
23 *149:35 *156:10 7.3812e-05
24 *149:35 *167:22 0.00308507
25 *149:35 *176:43 0.000861283
26 *149:46 *1386:B 0.000119094
27 *149:46 *179:131 0.000740498
28 *149:46 *188:21 0.000449374
29 *149:54 *1527:A 0.000308621
30 *149:54 *208:123 0.000392423
31 *1337:A *149:35 0.00038734
32 *1337:B *149:35 5.49544e-05
33 *1508:D *149:14 0.000100831
34 *1509:D *149:54 8.08476e-06
35 *1524:RESET_B *149:14 0.000426337
36 *67:10 *149:14 0.00103952
37 *84:80 *149:14 0.000490373
38 *107:20 *149:6 4.58976e-05
39 *107:20 *149:14 0.000224007
40 *118:20 *149:54 0.00333125
41 *141:43 *149:14 0.000143439
42 *147:74 *149:46 0
*RES
1 *1413:Y *149:6 10.2464 
2 *149:6 *149:14 47.2143 
3 *149:14 *1420:A2 16.3536 
4 *149:14 *149:35 49.5804 
5 *149:35 *1414:C 9.3 
6 *149:6 *149:46 33.1071 
7 *149:46 *149:54 42.8929 
8 *149:54 *1416:B 9.3 
*END

*D_NET *150 0.021642
*CONN
*I *1415:A I *D sky130_fd_sc_hd__clkbuf_1
*I *1414:X O *D sky130_fd_sc_hd__and3_1
*CAP
1 *1415:A 0.00343982
2 *1414:X 0.00348953
3 *150:30 0.00692934
4 *1415:A *1364:A2 4.46426e-05
5 *1415:A *1434:B 0
6 *1415:A *162:26 0
7 *1415:A *198:16 0.000818987
8 *1415:A *204:24 0.00125696
9 *1415:A *219:14 0.00046811
10 *150:30 *1456:A 0
11 *150:30 *169:26 0.00121607
12 *150:30 *176:43 2.88985e-05
13 *150:30 *218:42 0.000108511
14 *1333:B1 *150:30 7.69776e-06
15 *1404:B *1415:A 0.000106136
16 *1528:A *150:30 0.00126723
17 *39:22 *150:30 0.000144981
18 *48:20 *1415:A 4.52931e-05
19 *76:36 *1415:A 4.46426e-05
20 *86:10 *150:30 0.000640123
21 *105:20 *150:30 0
22 *110:24 *1415:A 2.42377e-05
23 *139:14 *1415:A 0.00142331
24 *141:14 *150:30 0.000137507
*RES
1 *1414:X *150:30 48.0317 
2 *150:30 *1415:A 25.9088 
*END

*D_NET *151 0.011978
*CONN
*I *1417:B I *D sky130_fd_sc_hd__nor2_1
*I *1416:X O *D sky130_fd_sc_hd__xor2_1
*CAP
1 *1417:B 0
2 *1416:X 0.000864058
3 *151:14 0.00151858
4 *151:8 0.00238264
5 *151:8 *1341:A2 5.49544e-05
6 *151:14 *1434:B 0
7 *151:14 *164:12 0
8 *1509:D *151:8 0.000308139
9 *1509:RESET_B *151:8 0.00117893
10 *20:10 *151:14 0.00258456
11 *25:18 *151:14 0.00011617
12 *28:10 *151:14 0.00182959
13 *40:16 *151:14 7.6644e-05
14 *41:18 *151:8 0.000322529
15 *41:18 *151:14 0.000716272
16 *134:37 *151:14 0
17 *141:16 *151:14 2.49484e-05
*RES
1 *1416:X *151:8 34.4607 
2 *151:8 *151:14 46.9286 
3 *151:14 *1417:B 13.8 
*END

*D_NET *152 0.00693294
*CONN
*I *1420:A1 I *D sky130_fd_sc_hd__o211a_1
*I *1418:Y O *D sky130_fd_sc_hd__nand2_1
*CAP
1 *1420:A1 0
2 *1418:Y 0.00240673
3 *152:10 0.00240673
4 *152:10 *1418:A 3.18676e-05
5 *152:10 *1418:B 0.000183095
6 *152:10 *157:16 0.000122935
7 *152:10 *191:43 9.96974e-05
8 *1420:A2 *152:10 9.54798e-06
9 *95:83 *152:10 0
10 *97:18 *152:10 0
11 *115:101 *152:10 0.000805286
12 *119:12 *152:10 0.000867049
*RES
1 *1418:Y *152:10 47.5679 
2 *152:10 *1420:A1 13.8 
*END

*D_NET *153 0.018999
*CONN
*I *1420:B1 I *D sky130_fd_sc_hd__o211a_1
*I *1419:X O *D sky130_fd_sc_hd__a31o_1
*CAP
1 *1420:B1 0.000260054
2 *1419:X 0.00069615
3 *153:28 0.00137089
4 *153:10 0.00308746
5 *153:8 0.00267278
6 *1420:B1 *1385:A1 5.33005e-05
7 *153:8 *1419:A2 0.000139907
8 *153:8 *1419:B1 0.000106467
9 *153:8 *207:26 1.74352e-05
10 *153:10 *1400:A 0.000166256
11 *153:10 *1530:A 0.000688551
12 *153:10 *183:81 1.81709e-05
13 *153:10 *183:83 0.000174376
14 *153:10 *187:22 0.000140344
15 *153:10 *187:34 9.38712e-05
16 *153:10 *190:109 0.000275009
17 *153:10 *199:56 5.39286e-05
18 *153:10 *202:10 0.000189584
19 *153:10 *208:22 0.00104018
20 *153:10 *208:41 4.33002e-05
21 *153:10 *208:108 0
22 *153:10 *210:56 0.000363384
23 *153:10 *220:42 0.000177072
24 *153:28 *1430:A 9.90367e-05
25 *153:28 *1446:B 0.000981854
26 *153:28 *217:10 0.000977228
27 *1385:A2 *1420:B1 5.33005e-05
28 *1398:A *153:28 0.000735774
29 *1399:A2 *153:28 6.96806e-05
30 *1441:A1 *153:10 0.000608293
31 *23:12 *153:28 0.000774133
32 *47:26 *153:10 0
33 *47:28 *153:10 0
34 *49:12 *153:28 4.7663e-05
35 *88:62 *153:10 1.90936e-05
36 *88:74 *153:28 0.00063889
37 *103:61 *153:10 0.00033254
38 *105:20 *1420:B1 0.00023468
39 *115:28 *153:28 9.94194e-05
40 *115:76 *1420:B1 1.40724e-05
41 *128:12 *1420:B1 2.12451e-06
42 *128:12 *153:28 2.77289e-05
43 *131:26 *153:28 0.000135739
44 *134:37 *153:10 0
45 *134:73 *153:28 9.94194e-05
46 *144:14 *153:28 0.00121984
*RES
1 *1419:X *153:8 22.55 
2 *153:8 *153:10 47.4821 
3 *153:10 *153:28 49.6786 
4 *153:28 *1420:B1 14.3714 
*END

*D_NET *154 0.0163772
*CONN
*I *1425:B I *D sky130_fd_sc_hd__and3_1
*I *1421:X O *D sky130_fd_sc_hd__a41o_1
*CAP
1 *1425:B 0.00304519
2 *1421:X 0.000346658
3 *154:12 0.00461162
4 *154:8 0.00191308
5 *1425:B *1352:B1_N 2.60673e-05
6 *1425:B *1440:A1 2.90184e-05
7 *1425:B *1440:B1 0.000114655
8 *1425:B *1540:A 0.0016199
9 *154:8 *1421:A2 0.00053128
10 *154:12 *1518:CLK 0
11 *154:12 *220:108 0.000283426
12 *1352:A2 *1425:B 3.32631e-05
13 *79:8 *154:12 0
14 *106:33 *154:12 0
15 *115:28 *1425:B 0.000683731
16 *115:76 *1425:B 0.00077118
17 *115:101 *1425:B 1.12822e-05
18 *117:26 *154:12 0.00235682
*RES
1 *1421:X *154:8 18.8536 
2 *154:8 *154:12 41.9643 
3 *154:12 *1425:B 49.2643 
*END

*D_NET *155 0.0315025
*CONN
*I *1432:D I *D sky130_fd_sc_hd__and4_1
*I *1439:B I *D sky130_fd_sc_hd__and2_2
*I *1423:B I *D sky130_fd_sc_hd__and2_1
*I *1422:X O *D sky130_fd_sc_hd__and4_2
*CAP
1 *1432:D 0.00042012
2 *1439:B 0.00102728
3 *1423:B 0.000381117
4 *1422:X 0.000210025
5 *155:59 0.0026571
6 *155:32 0.00213717
7 *155:18 0.00492983
8 *155:12 0.00208665
9 *155:8 0.00117284
10 *1423:B *207:126 5.49489e-05
11 *1439:B *1379:A 0.00117881
12 *1439:B *168:8 2.95726e-05
13 *1439:B *183:68 0.000103832
14 *1439:B *183:77 8.5182e-05
15 *155:8 *1421:B1 2.51343e-06
16 *155:8 *1520:CLK 1.58163e-05
17 *155:8 *212:40 9.9471e-06
18 *155:18 *203:12 0.000183513
19 *155:18 *209:39 4.01319e-05
20 *155:18 *212:12 9.76123e-05
21 *155:18 *214:34 9.41642e-05
22 *155:18 *222:18 5.58038e-05
23 *155:32 *156:10 0
24 *155:32 *181:124 3.97863e-05
25 *155:32 *207:122 0.000327557
26 *155:32 *209:39 1.03782e-05
27 *155:32 *212:12 0.00131458
28 *155:59 *1375:A 0.000269123
29 *155:59 *172:14 0.0010495
30 *155:59 *210:56 2.03079e-05
31 *155:59 *222:10 0.000168217
32 *155:59 *226:16 0.000426375
33 *1348:C *1423:B 0.000561864
34 *1383:A *155:59 0.000109932
35 *1383:B *1439:B 6.81704e-05
36 *1383:B *155:59 6.39829e-05
37 *1383:C *1439:B 0.000119824
38 *1406:C *155:32 0.000842453
39 *1439:A *1439:B 0.000552109
40 *1502:D *1439:B 8.11531e-05
41 *1502:RESET_B *1439:B 3.09242e-05
42 *1520:D *155:12 0.00115251
43 *26:8 *1432:D 0.000333699
44 *26:8 *155:12 0.000233481
45 *42:16 *155:32 9.69455e-05
46 *42:16 *155:59 5.33005e-05
47 *43:16 *155:59 0.000541037
48 *43:24 *155:59 1.55885e-05
49 *57:10 *155:32 0.000135028
50 *60:20 *1439:B 0.000304387
51 *115:22 *155:32 0.000270862
52 *118:18 *1432:D 0.000128303
53 *124:30 *155:59 0.000537233
54 *127:12 *1439:B 0.000185124
55 *138:8 *155:18 0.000929165
56 *142:34 *155:18 0.000844482
57 *147:10 *1432:D 1.00887e-05
58 *147:12 *1432:D 0.000759854
59 *147:14 *1432:D 0.000176234
60 *147:16 *1432:D 0.000159689
61 *147:16 *155:12 0.00160526
*RES
1 *1422:X *155:8 15.9786 
2 *155:8 *155:12 25.2679 
3 *155:12 *155:18 32.25 
4 *155:18 *155:32 47 
5 *155:32 *1423:B 23.3714 
6 *155:18 *155:59 40.543 
7 *155:59 *1439:B 33.7107 
8 *155:8 *1432:D 27.8893 
*END

*D_NET *156 0.0189825
*CONN
*I *1424:A I *D sky130_fd_sc_hd__inv_2
*I *1427:B I *D sky130_fd_sc_hd__or2_1
*I *1428:B I *D sky130_fd_sc_hd__nand2_1
*I *1423:X O *D sky130_fd_sc_hd__and2_1
*CAP
1 *1424:A 0.000480636
2 *1427:B 0.000897248
3 *1428:B 2.33368e-05
4 *1423:X 0.000721113
5 *156:31 0.00266536
6 *156:10 0.00282997
7 *156:8 0.00224026
8 *1424:A *1498:CLK 0.00018077
9 *1424:A *1503:CLK 0.000120504
10 *1424:A *199:27 2.84109e-05
11 *1424:A *199:42 0.000121027
12 *1424:A *199:107 0.000470798
13 *1424:A *210:91 8.78944e-05
14 *1424:A *218:82 0.000338696
15 *1427:B *199:107 8.25843e-06
16 *1427:B *203:31 0.000146618
17 *1427:B *211:27 0.000764866
18 *1428:B *165:45 1.91e-05
19 *1428:B *193:22 5.64097e-05
20 *156:10 *168:36 0
21 *156:10 *181:44 2.37944e-05
22 *156:10 *189:28 0
23 *156:10 *212:12 0
24 *156:31 *1428:A 0
25 *156:31 *180:58 0
26 *156:31 *181:124 0.000146071
27 *156:31 *182:12 2.06178e-05
28 *156:31 *182:66 0.000505511
29 *156:31 *189:26 0.000917655
30 *156:31 *212:23 0
31 *1337:B *156:10 0.00110429
32 *1339:B1 *156:31 0.000406944
33 *1348:C *156:8 0.00114461
34 *1503:D *1424:A 0
35 *1503:D *156:31 0
36 *48:20 *1427:B 0.000144896
37 *49:12 *156:31 9.58632e-05
38 *50:22 *156:31 4.75152e-06
39 *82:18 *156:10 0.00012249
40 *82:18 *156:31 0.00158812
41 *84:49 *1424:A 4.61703e-05
42 *84:49 *1427:B 9.95006e-05
43 *84:49 *156:31 0.000139928
44 *88:74 *156:31 9.41642e-05
45 *103:24 *156:31 0
46 *108:18 *156:31 0
47 *128:12 *156:10 0
48 *143:20 *156:10 0.000102046
49 *149:35 *156:10 7.3812e-05
50 *155:32 *156:10 0
*RES
1 *1423:X *156:8 24.6036 
2 *156:8 *156:10 28.3571 
3 *156:10 *1428:B 14.367 
4 *156:10 *156:31 41.6964 
5 *156:31 *1427:B 35.55 
6 *156:31 *1424:A 25.55 
*END

*D_NET *157 0.0120531
*CONN
*I *1425:C I *D sky130_fd_sc_hd__and3_1
*I *1424:Y O *D sky130_fd_sc_hd__inv_2
*CAP
1 *1425:C 4.71579e-05
2 *1424:Y 0.000565853
3 *157:16 0.00239468
4 *157:10 0.00291337
5 *1425:C *1482:A 1.95435e-05
6 *1425:C *179:24 7.83587e-05
7 *157:10 *1532:A 1.77525e-05
8 *157:10 *224:53 3.53762e-05
9 *157:16 *1352:B1_N 0.000825258
10 *157:16 *173:12 0.0013548
11 *157:16 *217:26 0.000197088
12 *157:16 *224:53 1.0095e-06
13 *1420:A2 *157:16 8.67966e-05
14 *1503:RESET_B *157:10 0.000121745
15 *1508:D *157:16 0.000102545
16 *1524:RESET_B *157:10 0.00119658
17 *29:30 *157:16 3.96984e-05
18 *61:14 *1425:C 7.6644e-05
19 *81:14 *157:10 7.49166e-06
20 *81:14 *157:16 0
21 *88:74 *157:16 5.88811e-06
22 *97:12 *157:16 0
23 *97:18 *157:16 0
24 *107:40 *157:10 0.000921218
25 *131:26 *157:10 8.01988e-05
26 *149:14 *157:10 5.8317e-05
27 *149:14 *157:16 0.000782782
28 *152:10 *157:16 0.000122935
*RES
1 *1424:Y *157:10 32.3268 
2 *157:10 *157:16 47.9375 
3 *157:16 *1425:C 19.5321 
*END

*D_NET *158 0.0114641
*CONN
*I *1426:A I *D sky130_fd_sc_hd__buf_1
*I *1425:X O *D sky130_fd_sc_hd__and3_1
*CAP
1 *1426:A 0.00110976
2 *1425:X 0.00105726
3 *158:8 0.00216702
4 *1426:A *1339:A1 0.000109292
5 *1426:A *1532:A 0.000388695
6 *1426:A *208:61 0.000134771
7 *158:8 *181:58 5.95268e-05
8 *158:8 *191:28 0.000299204
9 *158:8 *206:24 0.000525378
10 *158:8 *206:30 0.00207615
11 *158:8 *226:16 0.000316168
12 *1498:D *1426:A 7.13412e-06
13 *1516:RESET_B *158:8 0.000389104
14 *61:14 *158:8 0.00112312
15 *108:18 *1426:A 0.000520831
16 *110:24 *158:8 0.000149746
17 *117:20 *1426:A 0.00039854
18 *120:62 *1426:A 0.00057557
19 *141:14 *1426:A 5.68065e-05
*RES
1 *1425:X *158:8 48.3804 
2 *158:8 *1426:A 28.2512 
*END

*D_NET *159 0.0105609
*CONN
*I *1429:B I *D sky130_fd_sc_hd__and3_1
*I *1427:X O *D sky130_fd_sc_hd__or2_1
*CAP
1 *1429:B 0.000916873
2 *1427:X 0.000998678
3 *159:16 0.00191555
4 *1429:B *1395:A 9.35419e-05
5 *1429:B *1430:A 0.000600612
6 *1429:B *194:24 0.000640069
7 *1429:B *222:10 0.000221365
8 *1429:B *225:29 4.84159e-05
9 *159:16 *1372:B1 0.00070513
10 *159:16 *1375:A 0.000558934
11 *159:16 *190:58 6.70563e-05
12 *159:16 *190:109 0.000440465
13 *159:16 *208:41 0.000203437
14 *159:16 *208:108 9.60337e-06
15 *159:16 *221:10 3.06511e-05
16 *159:16 *221:37 5.33005e-05
17 *159:16 *222:10 0.000168224
18 *1515:RESET_B *159:16 0.000989653
19 *48:12 *1429:B 0.000260244
20 *57:10 *1429:B 2.19818e-05
21 *68:16 *1429:B 0.000769477
22 *88:62 *1429:B 0.000240484
23 *117:20 *159:16 0.000109877
24 *135:16 *1429:B 0.000497256
*RES
1 *1427:X *159:16 48.8179 
2 *159:16 *1429:B 48.8179 
*END

*D_NET *160 0.0145643
*CONN
*I *1433:A2 I *D sky130_fd_sc_hd__a211oi_1
*I *1429:C I *D sky130_fd_sc_hd__and3_1
*I *1428:Y O *D sky130_fd_sc_hd__nand2_1
*CAP
1 *1433:A2 0.0011873
2 *1429:C 0.000283414
3 *1428:Y 0.00170601
4 *160:35 0.00210745
5 *160:8 0.00290957
6 *1429:C *176:37 8.32466e-05
7 *1433:A2 *1530:A 0
8 *1433:A2 *162:26 9.03838e-05
9 *1433:A2 *187:44 0
10 *1433:A2 *218:70 0
11 *160:8 *193:22 0.0022676
12 *160:35 *183:68 0
13 *160:35 *187:68 6.28426e-05
14 *160:35 *190:48 9.41642e-05
15 *1351:B1 *1429:C 9.88887e-05
16 *1498:D *1433:A2 0.00015685
17 *1501:RESET_B *160:35 0
18 *1513:D *1433:A2 0
19 *86:10 *1433:A2 0.00200479
20 *86:10 *160:35 0.000204067
21 *86:32 *1429:C 0.000327053
22 *86:32 *160:35 0.000691401
23 *95:36 *1433:A2 0
24 *95:36 *160:35 1.27301e-05
25 *95:53 *1433:A2 0
26 *103:61 *1429:C 0
27 *103:61 *160:35 0
28 *109:38 *1433:A2 0
29 *127:12 *1429:C 5.01649e-06
30 *127:12 *160:35 0.000104021
31 *135:16 *1429:C 0.0001675
*RES
1 *1428:Y *160:8 36.1036 
2 *160:8 *1429:C 20.1036 
3 *160:8 *160:35 27.1786 
4 *160:35 *1433:A2 40.3357 
*END

*D_NET *161 0.00318521
*CONN
*I *1430:A I *D sky130_fd_sc_hd__clkbuf_1
*I *1429:X O *D sky130_fd_sc_hd__and3_1
*CAP
1 *1430:A 0.000760672
2 *1429:X 0.000760672
3 *1430:A *194:20 7.58841e-05
4 *1430:A *208:22 0.000203999
5 *1430:A *210:56 9.68834e-05
6 *1430:A *220:42 0.000302281
7 *1429:B *1430:A 0.000600612
8 *134:73 *1430:A 0.000219366
9 *144:14 *1430:A 6.58013e-05
10 *153:28 *1430:A 9.90367e-05
*RES
1 *1429:X *1430:A 42.4571 
*END

*D_NET *162 0.0220676
*CONN
*I *1433:A1 I *D sky130_fd_sc_hd__a211oi_1
*I *1431:Y O *D sky130_fd_sc_hd__inv_2
*CAP
1 *1433:A1 0
2 *1431:Y 0.00843515
3 *162:26 0.00843515
4 *162:26 *1372:B1 0.000139767
5 *162:26 *1434:B 0.000111913
6 *162:26 *188:65 0.000109425
7 *162:26 *196:34 0
8 *1415:A *162:26 0
9 *1433:A2 *162:26 9.03838e-05
10 *1507:D *162:26 0.000135968
11 *1517:RESET_B *162:26 5.51132e-05
12 *1521:D *162:26 0.000143169
13 *39:22 *162:26 0
14 *48:12 *162:26 0.000110352
15 *48:20 *162:26 0.000243269
16 *68:16 *162:26 0.000101402
17 *88:62 *162:26 0.000112745
18 *104:16 *162:26 0.000471263
19 *110:24 *162:26 0.0029928
20 *113:16 *162:26 0.000110478
21 *126:28 *162:26 0.000269213
22 *131:26 *162:26 0
*RES
1 *1431:Y *162:26 49.707 
2 *162:26 *1433:A1 9.3 
*END

*D_NET *163 0.0182922
*CONN
*I *1435:B I *D sky130_fd_sc_hd__nand2_1
*I *1433:B1 I *D sky130_fd_sc_hd__a211oi_1
*I *1434:B I *D sky130_fd_sc_hd__or2_1
*I *1432:X O *D sky130_fd_sc_hd__and4_1
*CAP
1 *1435:B 0.000350516
2 *1433:B1 0
3 *1434:B 0.00263307
4 *1432:X 0.000815536
5 *163:12 0.00550597
6 *163:6 0.00403895
7 *1435:B *1364:A2 3.06432e-05
8 *1435:B *1435:A 3.45371e-05
9 *1435:B *165:16 9.41642e-05
10 *1435:B *199:107 6.17358e-05
11 *163:6 *211:61 0.0008709
12 *163:12 *207:16 0.000348637
13 *163:12 *211:61 0.00144606
14 *1333:B1 *1434:B 0
15 *1386:D *1435:B 0.000459202
16 *1415:A *1434:B 0
17 *1433:C1 *163:12 0.000653025
18 *1510:RESET_B *1435:B 0.000182266
19 *1517:RESET_B *1434:B 1.94945e-05
20 *1517:RESET_B *163:12 0.000185436
21 *33:16 *163:12 0.000136676
22 *41:18 *1434:B 0
23 *76:36 *1435:B 0
24 *77:12 *163:12 0.000308828
25 *95:53 *1434:B 4.65158e-06
26 *151:14 *1434:B 0
27 *162:26 *1434:B 0.000111913
*RES
1 *1432:X *163:6 20.1036 
2 *163:6 *163:12 40.5179 
3 *163:12 *1434:B 30.2761 
4 *163:12 *1433:B1 9.3 
5 *163:6 *1435:B 26.7107 
*END

*D_NET *164 0.00922447
*CONN
*I *1436:B I *D sky130_fd_sc_hd__and3_1
*I *1434:X O *D sky130_fd_sc_hd__or2_1
*CAP
1 *1436:B 0.000789752
2 *1434:X 0.000184364
3 *164:12 0.00283056
4 *164:8 0.00222517
5 *1436:B *234:DIODE 0.000189577
6 *1436:B *165:51 4.49658e-05
7 *1436:B *166:8 0.000720161
8 *164:8 *1434:A 3.4026e-05
9 *164:8 *191:12 7.59753e-06
10 *164:12 *1345:A 0
11 *164:12 *1345:D 2.81946e-05
12 *164:12 *172:14 0.000905156
13 *164:12 *218:14 0
14 *1355:B *1436:B 0.000599592
15 *1358:B *164:12 0.00021844
16 *20:8 *1436:B 0.000440653
17 *28:10 *164:12 0
18 *124:30 *164:12 6.27272e-06
19 *136:8 *164:12 0
20 *141:16 *164:12 0
21 *151:14 *164:12 0
*RES
1 *1434:X *164:8 15.9786 
2 *164:8 *164:12 44.6964 
3 *164:12 *1436:B 27.6393 
*END

*D_NET *165 0.0224087
*CONN
*I *1436:C I *D sky130_fd_sc_hd__and3_1
*I *234:DIODE I *D sky130_fd_sc_hd__diode_2
*I *1440:A2 I *D sky130_fd_sc_hd__a221oi_1
*I *1435:Y O *D sky130_fd_sc_hd__nand2_1
*CAP
1 *1436:C 4.07121e-05
2 *234:DIODE 9.63511e-05
3 *1440:A2 0.000491936
4 *1435:Y 0.00164607
5 *165:51 0.000201048
6 *165:45 0.00278913
7 *165:26 0.00351508
8 *165:16 0.00194408
9 *1440:A2 *1347:B 0
10 *1440:A2 *1347:C 3.96104e-05
11 *1440:A2 *1440:A1 0.000697257
12 *1440:A2 *1440:B1 0.00069534
13 *165:16 *1347:C 0
14 *165:16 *1364:A2 0.000180334
15 *165:16 *1364:B1 0
16 *165:16 *200:10 0.00102493
17 *165:26 *1347:A_N 3.65075e-05
18 *165:26 *1347:B 0.000146208
19 *165:45 *1428:A 1.46231e-05
20 *165:45 *1486:A 2.65548e-05
21 *165:45 *168:24 0.000249959
22 *165:45 *181:151 0.000866192
23 *165:45 *193:20 5.20359e-06
24 *165:45 *193:22 3.24988e-05
25 *165:51 *193:20 2.51343e-06
26 *1344:B *1440:A2 0.000215102
27 *1344:B *165:26 0.000144732
28 *1402:A *165:26 0.000349543
29 *1428:B *165:45 1.91e-05
30 *1435:B *165:16 9.41642e-05
31 *1436:B *234:DIODE 0.000189577
32 *1436:B *165:51 4.49658e-05
33 *1510:RESET_B *165:16 0
34 *21:18 *1440:A2 0.000102515
35 *37:20 *165:16 0
36 *37:20 *165:26 0
37 *49:12 *165:26 0.00035119
38 *66:14 *165:16 1.73698e-05
39 *71:8 *165:45 0.00172148
40 *76:20 *165:16 2.93959e-05
41 *76:20 *165:26 7.48679e-06
42 *76:36 *165:16 0.00136152
43 *97:71 *165:45 0.00197921
44 *100:14 *1440:A2 0.000116939
45 *129:10 *1440:A2 0.000785122
46 *129:10 *165:26 0.000137102
*RES
1 *1435:Y *165:16 48.4964 
2 *165:16 *165:26 17.8214 
3 *165:26 *1440:A2 30.9429 
4 *165:26 *165:45 49.9464 
5 *165:45 *165:51 1.46429 
6 *165:51 *234:DIODE 11.4071 
7 *165:51 *1436:C 10.1393 
*END

*D_NET *166 0.0100591
*CONN
*I *1437:A I *D sky130_fd_sc_hd__clkbuf_1
*I *1436:X O *D sky130_fd_sc_hd__and3_1
*CAP
1 *1437:A 0
2 *1436:X 0.000545176
3 *166:10 0.00149262
4 *166:8 0.0020378
5 *166:10 *176:12 0.0010754
6 *166:10 *176:37 0.000548985
7 *166:10 *191:16 0.000297573
8 *166:10 *196:14 0.0011306
9 *166:10 *218:24 2.28335e-05
10 *1365:B *166:10 7.79781e-06
11 *1393:C *166:10 0.000164173
12 *1436:B *166:8 0.000720161
13 *1439:A *166:10 0.000201837
14 *1506:D *166:10 8.13107e-05
15 *1515:D *166:10 0.00113693
16 *1517:D *166:10 0.000165105
17 *41:18 *166:10 0
18 *94:10 *166:10 0
19 *146:20 *166:10 0.000430809
*RES
1 *1436:X *166:8 20.9071 
2 *166:8 *166:10 47.7857 
3 *166:10 *1437:A 13.8 
*END

*D_NET *167 0.0155013
*CONN
*I *1440:A1 I *D sky130_fd_sc_hd__a221oi_1
*I *1438:Y O *D sky130_fd_sc_hd__inv_2
*CAP
1 *1440:A1 0.000297545
2 *1438:Y 0.000976484
3 *167:22 0.00148887
4 *167:12 0.00216781
5 *1440:A1 *1331:A 0.0012068
6 *1440:A1 *1440:B1 0.000249016
7 *167:12 *176:37 0.000972052
8 *167:12 *214:46 7.27837e-05
9 *167:22 *176:43 0.000561679
10 *167:22 *225:12 6.57815e-05
11 *1337:A *167:22 0.00038734
12 *1337:B *167:22 0.000136682
13 *1352:A2 *1440:A1 9.71197e-05
14 *1414:A *167:12 1.02504e-05
15 *1425:B *1440:A1 2.90184e-05
16 *1440:A2 *1440:A1 0.000697257
17 *1504:RESET_B *167:22 0.00132162
18 *81:14 *167:22 0.000514111
19 *88:74 *167:22 0.000519489
20 *95:36 *167:12 9.78793e-05
21 *104:16 *167:22 1.38247e-05
22 *104:41 *167:22 0.000127759
23 *115:101 *1440:A1 0.0001399
24 *138:12 *167:22 0.000236625
25 *148:20 *167:12 2.84787e-05
26 *149:35 *167:22 0.00308507
*RES
1 *1438:Y *167:12 31.675 
2 *167:12 *167:22 46.5357 
3 *167:22 *1440:A1 27.0679 
*END

*D_NET *168 0.0281468
*CONN
*I *1442:C I *D sky130_fd_sc_hd__and3_2
*I *1441:A2 I *D sky130_fd_sc_hd__a21oi_2
*I *1440:B1 I *D sky130_fd_sc_hd__a221oi_1
*I *1439:X O *D sky130_fd_sc_hd__and2_2
*CAP
1 *1442:C 0.00183287
2 *1441:A2 1.69531e-05
3 *1440:B1 0.000279655
4 *1439:X 0.000357309
5 *168:55 0.00253429
6 *168:36 0.00199696
7 *168:24 0.00423098
8 *168:8 0.00355545
9 *1440:B1 *1331:A 1.63337e-05
10 *1440:B1 *1540:A 0.00098922
11 *1441:A2 *1506:CLK 5.33005e-05
12 *1442:C *1442:A 0.00035013
13 *1442:C *170:14 2.59355e-05
14 *168:8 *1379:A 1.65169e-05
15 *168:24 *1428:A 0.000183477
16 *168:24 *169:26 6.71789e-05
17 *168:24 *187:68 0
18 *168:24 *193:22 0.000861049
19 *168:24 *220:42 0.000181176
20 *168:36 *1331:A 0.000125717
21 *168:36 *1408:A 1.21258e-05
22 *168:36 *1452:A1 5.59013e-05
23 *168:36 *179:39 1.35433e-05
24 *168:36 *181:44 0.000120993
25 *168:55 *1456:A 5.52302e-05
26 *168:55 *196:14 1.21258e-05
27 *168:55 *224:22 0.000472908
28 *1352:A1 *168:36 5.79792e-05
29 *1425:B *1440:B1 0.000114655
30 *1439:A *168:8 0.000193356
31 *1439:B *168:8 2.95726e-05
32 *1440:A1 *1440:B1 0.000249016
33 *1440:A2 *1440:B1 0.00069534
34 *1440:B2 *1440:B1 1.76434e-05
35 *1441:A1 *1442:C 2.87555e-06
36 *1506:RESET_B *1441:A2 5.33005e-05
37 *32:16 *168:24 0.000564931
38 *32:16 *168:55 0.00117911
39 *51:8 *168:36 0.000488758
40 *82:18 *168:36 4.3304e-06
41 *86:32 *168:24 0.000132054
42 *94:10 *1442:C 0.000486419
43 *94:10 *168:55 0.00018796
44 *95:36 *168:24 6.43087e-06
45 *97:10 *168:36 8.25843e-06
46 *97:71 *168:24 0.00155793
47 *98:12 *168:55 0.000358981
48 *98:14 *168:24 0.000566494
49 *98:14 *168:55 0.000472554
50 *103:61 *168:24 5.74576e-05
51 *104:41 *168:36 0.000188812
52 *105:130 *1442:C 0.000493947
53 *105:130 *168:55 0.00018796
54 *127:12 *168:24 7.21538e-05
55 *145:12 *168:36 0.000720176
56 *146:20 *168:24 0.000119898
57 *146:20 *168:55 0.000211203
58 *156:10 *168:36 0
59 *165:45 *168:24 0.000249959
*RES
1 *1439:X *168:8 19.2643 
2 *168:8 *168:24 48.2127 
3 *168:24 *168:36 38.7857 
4 *168:36 *1440:B1 21.3536 
5 *168:8 *168:55 31.5 
6 *168:55 *1441:A2 14.3357 
7 *168:55 *1442:C 38.4964 
*END

*D_NET *169 0.0224267
*CONN
*I *1443:B I *D sky130_fd_sc_hd__nor3_1
*I *1441:Y O *D sky130_fd_sc_hd__a21oi_2
*CAP
1 *1443:B 0.00441256
2 *1441:Y 0.00333064
3 *169:26 0.0077432
4 *1443:B *1527:A 5.00194e-05
5 *1443:B *174:24 0.00134212
6 *1443:B *179:54 7.69776e-06
7 *169:26 *184:12 8.05612e-05
8 *169:26 *184:27 1.10866e-05
9 *169:26 *187:68 0.000170989
10 *169:26 *193:14 0.000111243
11 *169:26 *215:35 4.94627e-05
12 *169:26 *218:30 0.000120151
13 *1331:B *1443:B 0.00188201
14 *29:30 *1443:B 0.000380738
15 *43:10 *1443:B 2.06112e-05
16 *60:20 *169:26 0
17 *86:32 *169:26 0.000274119
18 *87:18 *1443:B 0.000527715
19 *89:14 *169:26 0.000364914
20 *95:36 *169:26 3.68161e-05
21 *105:20 *1443:B 0
22 *105:66 *169:26 0.000111065
23 *108:18 *169:26 4.88341e-05
24 *125:16 *169:26 1.94879e-05
25 *139:26 *1443:B 4.73891e-05
26 *146:20 *169:26 0
27 *150:30 *169:26 0.00121607
28 *168:24 *169:26 6.71789e-05
*RES
1 *1441:Y *169:26 42.3528 
2 *169:26 *1443:B 28.524 
*END

*D_NET *170 0.0337382
*CONN
*I *1448:B1 I *D sky130_fd_sc_hd__a21o_1
*I *1443:C I *D sky130_fd_sc_hd__nor3_1
*I *1444:B I *D sky130_fd_sc_hd__or2_1
*I *1445:B I *D sky130_fd_sc_hd__nand2_1
*I *1442:X O *D sky130_fd_sc_hd__and3_2
*CAP
1 *1448:B1 2.47465e-05
2 *1443:C 0.000682082
3 *1444:B 1.38756e-05
4 *1445:B 0.00117149
5 *1442:X 0.000572992
6 *170:72 0.0022173
7 *170:64 0.00346541
8 *170:26 0.00164067
9 *170:18 0.00163988
10 *170:14 0.00366301
11 *1443:C *1489:A 0.00026737
12 *1443:C *198:18 1.04904e-05
13 *1444:B *216:54 3.17163e-05
14 *1445:B *1342:C 0.000366129
15 *1445:B *1458:A 0.000648635
16 *1445:B *1519:CLK 0.000230568
17 *1445:B *172:8 0.000100916
18 *1445:B *210:10 4.59514e-05
19 *1445:B *210:33 7.29594e-05
20 *1445:B *215:8 0
21 *1445:B *216:54 0.000201368
22 *1448:B1 *174:24 9.58689e-05
23 *170:14 *187:22 3.9865e-05
24 *170:14 *199:56 0.000462966
25 *170:18 *1336:A2 0.000563979
26 *170:18 *1496:CLK 0.000270872
27 *170:18 *183:83 1.03904e-05
28 *170:18 *188:90 0.00254577
29 *170:18 *199:56 0.00175933
30 *170:26 *171:8 1.21258e-05
31 *170:26 *216:48 3.32631e-05
32 *170:64 *1525:CLK 6.3629e-05
33 *170:64 *180:58 0.000117464
34 *170:64 *185:12 0.000531065
35 *170:64 *190:109 0.00026023
36 *170:64 *216:28 0.000331251
37 *170:64 *221:10 0.000551498
38 *170:72 *188:8 7.43578e-06
39 *1362:B *1444:B 2.82057e-05
40 *1362:B *1445:B 0.0001902
41 *1377:A *1448:B1 9.58689e-05
42 *1380:C1 *1443:C 0.000114917
43 *1441:A1 *170:14 1.58163e-05
44 *1442:C *170:14 2.59355e-05
45 *1443:A *1443:C 0.000265453
46 *1505:D *1443:C 0
47 *1505:RESET_B *1443:C 0.000365682
48 *1519:RESET_B *1445:B 0.00012288
49 *1525:RESET_B *170:64 5.98888e-05
50 *39:22 *170:18 0.000234866
51 *47:28 *170:14 0.000869142
52 *47:28 *170:18 0.000174014
53 *51:8 *170:64 0.000144732
54 *51:8 *170:72 0.000142774
55 *66:14 *170:72 0.00089626
56 *74:16 *1443:C 0.00128897
57 *76:20 *170:72 0.000135028
58 *82:18 *170:64 0.00018663
59 *93:14 *170:64 0.000123543
60 *104:41 *170:72 0.000146011
61 *109:44 *1443:C 0.00166661
62 *112:18 *1445:B 3.54498e-05
63 *117:24 *170:64 0.000261929
64 *128:22 *170:26 0.00055218
65 *139:41 *170:26 0.000823649
66 *147:84 *170:14 4.70078e-05
*RES
1 *1442:X *170:14 28.8 
2 *170:14 *170:18 43.1786 
3 *170:18 *170:26 17.0893 
4 *170:26 *1445:B 44.425 
5 *170:26 *1444:B 14.5321 
6 *170:14 *170:64 41.6429 
7 *170:64 *170:72 34.4821 
8 *170:72 *1443:C 41.1036 
9 *170:64 *1448:B1 14.7464 
*END

*D_NET *171 0.010982
*CONN
*I *1446:B I *D sky130_fd_sc_hd__and3_1
*I *1444:X O *D sky130_fd_sc_hd__or2_1
*CAP
1 *1446:B 0.00111168
2 *1444:X 0.00146123
3 *171:8 0.00257291
4 *1446:B *1471:A 5.4061e-05
5 *1446:B *1482:A 0.000303135
6 *1446:B *174:40 0.000106003
7 *1446:B *189:32 0
8 *1446:B *203:31 0.000300441
9 *1446:B *217:10 0.00023716
10 *44:12 *1446:B 0.000222238
11 *85:22 *1446:B 0
12 *87:24 *1446:B 0.00156239
13 *128:22 *171:8 0.00205676
14 *153:28 *1446:B 0.000981854
15 *170:26 *171:8 1.21258e-05
*RES
1 *1444:X *171:8 34.05 
2 *171:8 *1446:B 43.7286 
*END

*D_NET *172 0.0159303
*CONN
*I *1446:C I *D sky130_fd_sc_hd__and3_1
*I *1445:Y O *D sky130_fd_sc_hd__nand2_1
*CAP
1 *1446:C 7.902e-05
2 *1445:Y 0.000188406
3 *172:14 0.00437592
4 *172:8 0.0044853
5 *1446:C *223:25 2.93936e-05
6 *172:14 *216:70 3.17866e-05
7 *172:14 *219:16 0
8 *1439:A *172:14 0.00200789
9 *1445:B *172:8 0.000100916
10 *78:12 *1446:C 6.30931e-05
11 *85:22 *1446:C 2.64888e-05
12 *85:22 *172:14 5.94628e-05
13 *95:12 *172:14 0.000204179
14 *103:24 *172:14 0.00135189
15 *115:8 *1446:C 6.04072e-05
16 *124:30 *172:14 0.000911497
17 *136:8 *172:14 0
18 *141:16 *172:14 0
19 *155:59 *172:14 0.0010495
20 *164:12 *172:14 0.000905156
*RES
1 *1445:Y *172:8 16.3893 
2 *172:8 *172:14 48.5112 
3 *172:14 *1446:C 18.7011 
*END

*D_NET *173 0.00818273
*CONN
*I *1447:A I *D sky130_fd_sc_hd__clkbuf_1
*I *1446:X O *D sky130_fd_sc_hd__and3_1
*CAP
1 *1447:A 0.000788401
2 *1446:X 0.00140937
3 *173:12 0.00219777
4 *1447:A *176:43 8.25843e-06
5 *173:12 *174:24 0.000168959
6 *44:12 *173:12 0.00106874
7 *81:14 *173:12 0.000202775
8 *88:74 *1447:A 0.000642093
9 *88:74 *173:12 0.000341558
10 *157:16 *173:12 0.0013548
*RES
1 *1446:X *173:12 46.7286 
2 *173:12 *1447:A 19.1929 
*END

*D_NET *174 0.018068
*CONN
*I *1449:C1 I *D sky130_fd_sc_hd__o211a_1
*I *1448:X O *D sky130_fd_sc_hd__a21o_1
*CAP
1 *1449:C1 0.00011779
2 *1448:X 0.00251279
3 *174:40 0.00116589
4 *174:24 0.00356089
5 *1449:C1 *1351:C1 0
6 *174:24 *179:110 0.000689261
7 *174:40 *1336:A1 0.00123379
8 *174:40 *1346:C 0.000269734
9 *174:40 *1449:A2 0.000137639
10 *174:40 *1471:A 0
11 *174:40 *1482:A 0.00030485
12 *174:40 *200:63 0.000151782
13 *174:40 *217:26 0.000850621
14 *1377:A *174:24 0.000191794
15 *1443:B *174:24 0.00134212
16 *1446:B *174:40 0.000106003
17 *1448:A1 *174:24 9.41642e-05
18 *1448:B1 *174:24 9.58689e-05
19 *1449:B1 *1449:C1 7.76631e-05
20 *1499:RESET_B *174:40 0.000476684
21 *1526:RESET_B *174:24 0.000142051
22 *29:30 *174:24 0.000409351
23 *31:14 *174:40 0
24 *38:12 *174:40 0
25 *61:14 *174:40 0
26 *81:14 *174:24 0.000136517
27 *87:24 *174:40 0.00014444
28 *88:74 *174:24 0.000152711
29 *91:16 *174:40 0.000390641
30 *102:16 *174:40 0.000394037
31 *104:16 *1449:C1 2.06178e-05
32 *124:30 *174:24 0.000583846
33 *126:28 *174:24 0.00141425
34 *132:14 *174:24 0.000720844
35 *142:34 *174:24 1.03904e-05
36 *173:12 *174:24 0.000168959
*RES
1 *1448:X *174:24 47.0818 
2 *174:24 *174:40 49.8125 
3 *174:40 *1449:C1 16.05 
*END

*D_NET *175 0.0219201
*CONN
*I *1454:A2 I *D sky130_fd_sc_hd__a21oi_1
*I *1451:C I *D sky130_fd_sc_hd__and3b_1
*I *1459:A2 I *D sky130_fd_sc_hd__a21boi_2
*I *1453:B I *D sky130_fd_sc_hd__nor2_1
*I *1450:Y O *D sky130_fd_sc_hd__nor2_2
*CAP
1 *1454:A2 0.00012621
2 *1451:C 0.000464176
3 *1459:A2 0.000468545
4 *1453:B 0.000205698
5 *1450:Y 0.000840673
6 *175:47 0.00105365
7 *175:34 0.00160366
8 *175:14 0.00221723
9 *175:12 0.00165467
10 *1451:C *1340:A 0.00032783
11 *1451:C *1451:A_N 9.93135e-05
12 *1451:C *213:25 4.58194e-05
13 *1453:B *193:14 4.58194e-05
14 *1454:A2 *191:28 7.43578e-06
15 *1459:A2 *1333:A1_N 0.00204095
16 *1459:A2 *1333:B2 0.000243828
17 *1459:A2 *1459:A1 2.28598e-05
18 *175:12 *1342:D 0.00094729
19 *175:12 *1355:A 0.000199782
20 *175:12 *1450:A 9.18429e-05
21 *175:12 *190:28 0.00212788
22 *175:34 *1340:A 0.000732964
23 *175:34 *190:22 0.000223993
24 *175:34 *215:35 0.000320681
25 *175:34 *216:42 0.000177421
26 *175:47 *1340:A 0.000381883
27 *1333:A2_N *1453:B 0.000219711
28 *1365:C *1451:C 0.000525381
29 *1381:B *175:34 0.000227736
30 *1453:A *1453:B 4.27935e-05
31 *1502:RESET_B *175:34 0.000300757
32 *1517:RESET_B *1451:C 3.9845e-05
33 *54:24 *1451:C 0.00011852
34 *55:16 *1451:C 0.000779666
35 *55:16 *175:34 0.000720648
36 *55:16 *175:47 0.000375001
37 *84:49 *1459:A2 0.00161737
38 *95:53 *1451:C 5.45965e-05
39 *98:14 *175:34 0.000226021
*RES
1 *1450:Y *175:12 47.3179 
2 *175:12 *175:14 11.2143 
3 *175:14 *175:34 42.9464 
4 *175:34 *1453:B 17.6393 
5 *175:34 *175:47 4.98214 
6 *175:47 *1459:A2 34.05 
7 *175:47 *1451:C 29.3 
8 *175:14 *1454:A2 11.0679 
*END

*D_NET *176 0.0200998
*CONN
*I *1452:C1 I *D sky130_fd_sc_hd__a2111o_2
*I *1457:C I *D sky130_fd_sc_hd__or3_1
*I *1451:X O *D sky130_fd_sc_hd__and3b_1
*CAP
1 *1452:C1 0
2 *1457:C 9.58898e-05
3 *1451:X 0.000905514
4 *176:43 0.00181808
5 *176:37 0.00312957
6 *176:12 0.0023129
7 *1457:C *190:22 0.000303972
8 *176:12 *1451:B 9.84045e-05
9 *176:12 *187:22 0.000160087
10 *176:12 *190:22 0.00012747
11 *176:12 *218:24 0.000981783
12 *176:37 *191:16 0.000271253
13 *176:37 *214:46 0.000362387
14 *176:43 *189:47 0.00174621
15 *176:43 *218:42 0
16 *176:43 *225:12 0.00119794
17 *1333:A2_N *176:12 0.000237511
18 *1337:B *176:43 4.10926e-05
19 *1351:B1 *176:43 8.53875e-05
20 *1393:C *176:37 0.000417488
21 *1429:A *176:37 4.35564e-05
22 *1429:C *176:37 8.32466e-05
23 *1439:A *176:37 0.00020393
24 *1447:A *176:43 8.25843e-06
25 *1506:D *176:12 7.95888e-05
26 *32:16 *176:37 0.000435258
27 *88:74 *176:43 6.595e-05
28 *94:10 *176:12 8.21945e-05
29 *105:45 *176:37 9.58104e-05
30 *107:46 *1457:C 0.000153589
31 *107:46 *176:12 7.02611e-05
32 *135:16 *176:37 8.63973e-05
33 *146:20 *176:12 0.000125162
34 *146:20 *176:37 0.000225399
35 *149:35 *176:43 0.000861283
36 *150:30 *176:43 2.88985e-05
37 *166:10 *176:12 0.0010754
38 *166:10 *176:37 0.000548985
39 *167:12 *176:37 0.000972052
40 *167:22 *176:43 0.000561679
*RES
1 *1451:X *176:12 48.0143 
2 *176:12 *1457:C 12.3 
3 *176:12 *176:37 49.3393 
4 *176:37 *176:43 45.0714 
5 *176:43 *1452:C1 9.3 
*END

*D_NET *177 0.0110721
*CONN
*I *1456:A I *D sky130_fd_sc_hd__buf_1
*I *1455:X O *D sky130_fd_sc_hd__or3_1
*CAP
1 *1456:A 0.000986075
2 *1455:X 0.00225319
3 *177:14 0.00323927
4 *1456:A *1442:A 0.000408209
5 *1456:A *1473:A 9.96114e-05
6 *1456:A *184:8 2.24718e-05
7 *1456:A *193:14 1.0946e-05
8 *1456:A *196:14 4.97967e-05
9 *1456:A *224:22 0.000343997
10 *177:14 *1455:B 0.000274761
11 *177:14 *1479:A 0.00019147
12 *177:14 *1512:CLK 1.39726e-05
13 *177:14 *205:54 1.04066e-05
14 *1333:B1 *1456:A 5.7836e-06
15 *1512:D *177:14 0.00192064
16 *1512:RESET_B *177:14 9.36593e-05
17 *1523:D *1456:A 0.00103764
18 *60:20 *1456:A 0
19 *80:12 *1456:A 5.49489e-05
20 *86:10 *1456:A 0
21 *150:30 *1456:A 0
22 *168:55 *1456:A 5.52302e-05
*RES
1 *1455:X *177:14 44.8893 
2 *177:14 *1456:A 35.8179 
*END

*D_NET *178 0.0154835
*CONN
*I *1458:A I *D sky130_fd_sc_hd__clkbuf_1
*I *1457:X O *D sky130_fd_sc_hd__or3_1
*CAP
1 *1458:A 0.00271994
2 *1457:X 0.000662804
3 *178:18 0.00342101
4 *178:14 0.00136388
5 *1458:A *1496:CLK 3.4963e-05
6 *1458:A *210:10 0.000116516
7 *178:14 *1457:B 3.52777e-05
8 *178:14 *190:28 0.000139907
9 *178:14 *201:14 0.000977563
10 *178:14 *201:16 0.000653968
11 *178:18 *1409:A 1.17968e-05
12 *178:18 *1409:B 0.000154486
13 *178:18 *201:16 0.000540352
14 *1381:B *178:14 0.00139534
15 *1389:B *178:18 5.74053e-05
16 *1445:B *1458:A 0.000648635
17 *1496:D *1458:A 0.000519378
18 *1503:D *178:14 4.15914e-05
19 *1519:D *178:18 0.000547124
20 *1519:RESET_B *1458:A 0.000128776
21 *25:18 *178:14 0.000215425
22 *41:18 *178:18 0.0001033
23 *61:14 *1458:A 0.000141935
24 *98:14 *178:14 0.000108336
25 *98:14 *178:18 0.000576187
26 *112:18 *1458:A 0.00016168
27 *129:30 *178:18 5.90443e-06
*RES
1 *1457:X *178:14 38.2554 
2 *178:14 *178:18 26.3304 
3 *178:18 *1458:A 47.0143 
*END

*D_NET *179 0.0467363
*CONN
*I *1468:A I *D sky130_fd_sc_hd__inv_2
*I *1467:A I *D sky130_fd_sc_hd__inv_2
*I *1469:A I *D sky130_fd_sc_hd__inv_2
*I *1463:A I *D sky130_fd_sc_hd__inv_2
*I *1466:A I *D sky130_fd_sc_hd__inv_2
*I *1462:A I *D sky130_fd_sc_hd__inv_2
*I *1465:A I *D sky130_fd_sc_hd__inv_2
*I *1464:A I *D sky130_fd_sc_hd__inv_2
*I *1470:A I *D sky130_fd_sc_hd__inv_2
*I *1461:A I *D sky130_fd_sc_hd__inv_2
*I *1460:X O *D sky130_fd_sc_hd__clkbuf_8
*CAP
1 *1468:A 0.000678465
2 *1467:A 0.000191364
3 *1469:A 2.92268e-05
4 *1463:A 0.000168783
5 *1466:A 0.00138768
6 *1462:A 3.68251e-05
7 *1465:A 9.38185e-05
8 *1464:A 0.000970777
9 *1470:A 5.06572e-05
10 *1461:A 0
11 *1460:X 0
12 *179:133 0.000220591
13 *179:131 0.00196936
14 *179:110 0.00244718
15 *179:78 0.00149821
16 *179:54 0.0015333
17 *179:52 0.00123981
18 *179:39 0.00240355
19 *179:24 0.000984671
20 *179:10 0.00314641
21 *179:4 0.00149373
22 *1463:A *204:41 2.59355e-05
23 *1463:A *208:61 0.000130405
24 *1463:A *212:40 0.000434813
25 *1464:A *1487:A 5.66971e-05
26 *1464:A *197:8 0.00261013
27 *1464:A *198:18 0.000218066
28 *1466:A *193:28 0.000175281
29 *1466:A *198:18 0.000192307
30 *1466:A *208:88 0.00178259
31 *1466:A *218:96 7.48091e-05
32 *1467:A *207:26 0.000238249
33 *1468:A *1511:CLK 0.000564002
34 *1468:A *206:14 0.000144773
35 *1469:A *207:26 0.000185118
36 *1470:A *1347:A_N 6.05161e-06
37 *1470:A *1539:A 4.35597e-05
38 *179:10 *214:34 7.40536e-05
39 *179:10 *224:59 0.000144116
40 *179:10 *225:35 0.000133333
41 *179:24 *1372:B1 0.000250863
42 *179:24 *181:31 0.000220309
43 *179:24 *189:36 0.000475677
44 *179:24 *194:24 0.00135317
45 *179:24 *220:55 0.000172478
46 *179:24 *224:59 0.000110057
47 *179:24 *225:29 0.00012467
48 *179:39 *1347:A_N 3.28417e-05
49 *179:39 *181:151 0.000141039
50 *179:52 *1347:A_N 3.08382e-06
51 *179:52 *1539:A 0.00161479
52 *179:52 *181:162 9.41642e-05
53 *179:54 *198:18 0.000292286
54 *179:54 *208:88 0.000766711
55 *179:78 *208:88 0.000188364
56 *179:110 *1455:A 0.000249908
57 *179:110 *1531:A 2.07809e-05
58 *179:110 *1534:A 7.78837e-05
59 *179:110 *180:31 0.00018992
60 *179:110 *204:41 4.66203e-05
61 *179:110 *224:14 0.000100831
62 *179:131 *1386:B 0.000359158
63 *179:131 *1479:A 1.12456e-05
64 *179:131 *188:21 6.85784e-05
65 *179:131 *188:31 9.6788e-05
66 *179:131 *204:41 5.66157e-05
67 *179:131 *207:26 0
68 *179:131 *211:61 0.000121495
69 *179:131 *213:35 0
70 *179:131 *224:14 0.000214348
71 *1370:C *1464:A 2.05953e-05
72 *1378:A *1466:A 0
73 *1406:C *179:10 0.000433269
74 *1406:C *179:24 0.000219902
75 *1425:C *179:24 7.83587e-05
76 *1443:B *179:54 7.69776e-06
77 *1495:RESET_B *179:131 0.000483351
78 *1511:RESET_B *1468:A 6.28767e-05
79 *1519:RESET_B *1464:A 0.000359266
80 *1521:RESET_B *179:10 0.000135028
81 *1521:RESET_B *179:110 0.000544974
82 *36:10 *179:54 0.000899529
83 *43:10 *1466:A 8.53111e-05
84 *43:10 *179:54 7.43828e-05
85 *43:10 *179:78 6.27091e-05
86 *44:10 *1466:A 0
87 *49:10 *1466:A 5.79701e-05
88 *54:12 *1468:A 6.42778e-05
89 *61:14 *179:24 0.000320282
90 *67:10 *179:110 0
91 *76:20 *179:39 0.000187391
92 *77:12 *179:131 0.000596615
93 *93:6 *179:131 0.000942715
94 *95:68 *179:24 5.41794e-05
95 *97:10 *179:39 0.00180573
96 *97:59 *179:24 0.00110708
97 *115:10 *179:10 0.000402079
98 *115:22 *179:10 0.000168789
99 *117:20 *179:110 6.5381e-05
100 *132:14 *179:110 4.22135e-06
101 *133:10 *179:39 5.20128e-05
102 *142:34 *179:10 7.83587e-05
103 *142:34 *179:110 7.22051e-05
104 *142:34 *179:131 8.14438e-05
105 *147:76 *1467:A 0.000346541
106 *147:76 *1469:A 0.000185118
107 *149:46 *179:131 0.000740498
108 *168:36 *179:39 1.35433e-05
109 *174:24 *179:110 0.000689261
*RES
1 *1460:X *179:4 9.3 
2 *179:4 *179:10 17.5179 
3 *179:10 *179:24 44.7143 
4 *179:24 *1461:A 9.3 
5 *179:10 *179:39 36.3929 
6 *179:39 *1470:A 10.2464 
7 *179:39 *179:52 20.6607 
8 *179:52 *179:54 17.125 
9 *179:54 *1464:A 44.2821 
10 *179:54 *1465:A 15.1571 
11 *179:52 *179:78 2.55357 
12 *179:78 *1462:A 14.3357 
13 *179:78 *1466:A 49.9429 
14 *179:4 *179:110 27.0179 
15 *179:110 *1463:A 18.7643 
16 *179:110 *179:131 43.3036 
17 *179:131 *179:133 4.5 
18 *179:133 *1469:A 11.0679 
19 *179:133 *1467:A 23.9607 
20 *179:131 *1468:A 26.4607 
*END

*D_NET *180 0.0354714
*CONN
*I *1480:A I *D sky130_fd_sc_hd__inv_2
*I *1477:A I *D sky130_fd_sc_hd__inv_2
*I *1481:A I *D sky130_fd_sc_hd__inv_2
*I *1478:A I *D sky130_fd_sc_hd__inv_2
*I *1479:A I *D sky130_fd_sc_hd__inv_2
*I *1473:A I *D sky130_fd_sc_hd__inv_2
*I *1476:A I *D sky130_fd_sc_hd__inv_2
*I *1474:A I *D sky130_fd_sc_hd__inv_2
*I *1472:A I *D sky130_fd_sc_hd__inv_2
*I *1475:A I *D sky130_fd_sc_hd__inv_2
*I *1471:X O *D sky130_fd_sc_hd__buf_4
*CAP
1 *1480:A 2.62838e-05
2 *1477:A 0
3 *1481:A 0
4 *1478:A 0
5 *1479:A 0.000486366
6 *1473:A 0.00015378
7 *1476:A 0
8 *1474:A 0.000476939
9 *1472:A 0
10 *1475:A 0.000321405
11 *1471:X 0
12 *180:156 0.000293341
13 *180:125 0.00115964
14 *180:80 0.00118114
15 *180:70 0.00282882
16 *180:58 0.00309838
17 *180:48 0.000638887
18 *180:44 0.000821163
19 *180:31 0.0016557
20 *180:25 0.00208918
21 *180:4 0.00112436
22 *1475:A *200:50 3.97677e-05
23 *1475:A *201:62 0.000194842
24 *1475:A *206:30 0.000336466
25 *1479:A *1455:B 0.000267738
26 *1479:A *207:16 1.2017e-05
27 *1479:A *213:35 0.000508893
28 *1480:A *185:62 5.33005e-05
29 *180:25 *1382:A 9.86486e-06
30 *180:25 *1431:A 0.000279879
31 *180:25 *1494:A 9.84673e-05
32 *180:25 *201:62 0.000154809
33 *180:25 *224:65 0.000400094
34 *180:31 *1349:A1 5.07263e-06
35 *180:31 *1352:B1_N 0.000170055
36 *180:31 *1494:A 0.00027237
37 *180:31 *214:14 0.000298483
38 *180:31 *220:66 0.000262948
39 *180:31 *220:89 0.00176896
40 *180:31 *223:25 0.000298483
41 *180:44 *1452:D1 0.000142812
42 *180:44 *1527:A 0.000146877
43 *180:44 *205:10 0.000771583
44 *180:44 *214:14 0.000178847
45 *180:44 *223:25 0.00016834
46 *180:48 *185:6 0.000177055
47 *180:48 *185:12 8.66739e-05
48 *180:48 *216:28 0.000559325
49 *180:58 *1525:CLK 0.000118841
50 *180:58 *185:12 0.000190876
51 *180:58 *212:23 0.000272708
52 *180:58 *216:28 0.000333225
53 *180:58 *225:35 7.95696e-06
54 *180:70 *1485:A 9.71197e-05
55 *180:70 *1507:CLK 0.000250744
56 *180:70 *189:87 4.58194e-05
57 *180:70 *202:6 2.89114e-05
58 *180:70 *202:57 0.000233978
59 *180:70 *211:46 0.00030182
60 *180:80 *1441:B1 0.000167375
61 *180:80 *215:35 0.000147156
62 *180:125 *1400:B 4.68855e-05
63 *180:125 *1503:CLK 2.22674e-05
64 *180:125 *186:89 2.88045e-05
65 *180:125 *186:91 7.95735e-05
66 *180:125 *199:12 7.17727e-06
67 *180:125 *204:24 0.0004968
68 *180:125 *207:16 8.08476e-06
69 *180:125 *210:91 0.000108658
70 *180:125 *225:35 1.5929e-05
71 *180:156 *185:6 0.000150923
72 *180:156 *185:62 0.000201649
73 *180:156 *216:28 0.000223597
74 *1339:B1 *180:58 0
75 *1339:B1 *180:125 0
76 *1349:A3 *1475:A 0.000347166
77 *1441:A1 *1473:A 9.60103e-05
78 *1441:A1 *180:70 0.000278088
79 *1441:A1 *180:80 0.00018305
80 *1456:A *1473:A 9.96114e-05
81 *1495:RESET_B *180:125 1.90936e-05
82 *1503:D *180:125 0.000157678
83 *1506:D *1473:A 0.000175892
84 *1506:D *180:70 4.36321e-05
85 *1510:RESET_B *180:156 0.000230155
86 *1511:RESET_B *1479:A 0
87 *1512:RESET_B *1479:A 0.000579373
88 *22:20 *180:70 6.26276e-05
89 *51:8 *180:44 0.000314177
90 *55:16 *180:80 0.000303559
91 *60:20 *1473:A 0
92 *60:20 *1474:A 0.000796582
93 *61:14 *1475:A 0.00016426
94 *67:10 *180:31 2.1547e-05
95 *84:80 *180:58 0.000389741
96 *91:16 *1475:A 5.49544e-05
97 *91:16 *180:25 0.000357856
98 *94:10 *1474:A 0.000955689
99 *103:24 *180:58 8.17119e-05
100 *105:130 *1474:A 0.0002671
101 *125:16 *1474:A 5.33005e-05
102 *125:16 *180:80 0.000166066
103 *130:10 *1474:A 5.29836e-05
104 *132:14 *180:31 6.23866e-05
105 *138:12 *180:31 0.00104068
106 *156:31 *180:58 0
107 *170:64 *180:58 0.000117464
108 *177:14 *1479:A 0.00019147
109 *179:110 *180:31 0.00018992
110 *179:131 *1479:A 1.12456e-05
*RES
1 *1471:X *180:4 9.3 
2 *180:4 *1475:A 27.2107 
3 *180:4 *180:25 19.4464 
4 *180:25 *180:31 42.5357 
5 *180:31 *1472:A 9.3 
6 *180:31 *180:44 20.9107 
7 *180:44 *180:48 5.89286 
8 *180:48 *180:58 16.7946 
9 *180:58 *180:70 32.9911 
10 *180:70 *180:80 20.7143 
11 *180:80 *1474:A 33.5857 
12 *180:80 *1476:A 9.3 
13 *180:70 *1473:A 21.8357 
14 *180:58 *180:125 18.1161 
15 *180:125 *1479:A 30.8 
16 *180:125 *1478:A 9.3 
17 *180:48 *1481:A 9.3 
18 *180:44 *180:156 7.125 
19 *180:156 *1477:A 9.3 
20 *180:156 *1480:A 9.83571 
*END

*D_NET *181 0.0428141
*CONN
*I *1489:A I *D sky130_fd_sc_hd__inv_2
*I *1487:A I *D sky130_fd_sc_hd__inv_2
*I *1491:A I *D sky130_fd_sc_hd__inv_2
*I *1486:A I *D sky130_fd_sc_hd__inv_2
*I *1484:A I *D sky130_fd_sc_hd__inv_2
*I *1488:A I *D sky130_fd_sc_hd__inv_2
*I *1492:A I *D sky130_fd_sc_hd__inv_2
*I *1485:A I *D sky130_fd_sc_hd__inv_2
*I *1490:A I *D sky130_fd_sc_hd__inv_2
*I *1483:A I *D sky130_fd_sc_hd__inv_2
*I *1482:X O *D sky130_fd_sc_hd__clkbuf_8
*CAP
1 *1489:A 0.000972647
2 *1487:A 0.00119956
3 *1491:A 0
4 *1486:A 2.5799e-05
5 *1484:A 0.000406746
6 *1488:A 0.000801358
7 *1492:A 0.00167279
8 *1485:A 2.17614e-05
9 *1490:A 0
10 *1483:A 0.000377042
11 *1482:X 0
12 *181:162 0.00234449
13 *181:151 0.00126831
14 *181:124 0.00133041
15 *181:92 0.00308137
16 *181:75 0.00428913
17 *181:58 0.00217707
18 *181:44 0.00183596
19 *181:31 0.000992684
20 *181:4 0.00115458
21 *1483:A *1346:C 2.28335e-05
22 *1483:A *1482:A 9.58181e-05
23 *1483:A *217:26 0.000219227
24 *1486:A *193:22 4.26927e-05
25 *1488:A *1327:B 0.000242581
26 *181:31 *1372:B1 0.000560511
27 *181:31 *1482:A 8.45367e-05
28 *181:31 *226:6 4.08637e-05
29 *181:31 *226:16 0.000177591
30 *181:58 *1507:CLK 8.6229e-06
31 *181:58 *206:30 0.00111563
32 *181:75 *1357:A 3.35685e-06
33 *181:75 *1455:B 8.9647e-05
34 *181:75 *1507:CLK 0.000713452
35 *181:75 *186:23 0.00016674
36 *181:75 *186:34 0.000421951
37 *181:92 *1327:B 0.000689644
38 *181:92 *188:31 0.00111399
39 *181:151 *1347:B 0.000231645
40 *181:151 *193:22 0.00206022
41 *1335:A *181:31 0.000234291
42 *1344:A *181:151 0.000103211
43 *1386:D *1484:A 8.64076e-05
44 *1386:D *1488:A 3.48284e-05
45 *1411:C1 *1487:A 0
46 *1423:A *1487:A 0
47 *1443:A *1489:A 0.000631177
48 *1443:C *1489:A 0.00026737
49 *1459:B1_N *181:75 0.000169989
50 *1464:A *1487:A 5.66971e-05
51 *1515:D *1492:A 5.22622e-05
52 *1515:RESET_B *1492:A 0.000410091
53 *1516:RESET_B *181:58 0.000578658
54 *1522:RESET_B *181:31 0.000150169
55 *1523:D *1492:A 0.000146254
56 *1523:RESET_B *1492:A 0.000742713
57 *1523:RESET_B *181:92 8.43386e-05
58 *1528:A *181:58 0.000377011
59 *21:18 *1489:A 7.65689e-05
60 *22:20 *1485:A 9.71197e-05
61 *22:20 *181:75 0
62 *27:12 *1484:A 0
63 *35:12 *1487:A 2.46107e-05
64 *35:12 *181:162 0
65 *47:12 *181:92 1.98839e-05
66 *48:12 *1483:A 0.000283085
67 *49:12 *181:58 0.000595671
68 *49:12 *181:124 0.000178503
69 *54:24 *1492:A 7.61891e-05
70 *61:14 *181:31 0
71 *68:16 *1483:A 0.000322986
72 *70:18 *181:75 0.000312698
73 *71:8 *181:151 0.000112547
74 *74:16 *1489:A 0.000186767
75 *76:50 *181:75 3.61717e-05
76 *76:50 *181:92 0.0001635
77 *82:18 *181:31 2.36643e-05
78 *82:18 *181:44 0.000281899
79 *84:12 *1488:A 0.000501676
80 *87:24 *181:58 0.000468011
81 *87:51 *181:58 0.000183536
82 *87:51 *181:75 1.7606e-05
83 *107:40 *181:58 4.79864e-05
84 *115:30 *1483:A 4.82947e-05
85 *115:30 *181:31 4.82865e-05
86 *133:10 *1487:A 0.000273157
87 *133:10 *181:151 0.000143143
88 *133:10 *181:162 0.00018213
89 *145:12 *1487:A 0
90 *145:12 *181:151 9.41642e-05
91 *155:32 *181:124 3.97863e-05
92 *156:10 *181:44 2.37944e-05
93 *156:31 *181:124 0.000146071
94 *158:8 *181:58 5.95268e-05
95 *165:45 *1486:A 2.65548e-05
96 *165:45 *181:151 0.000866192
97 *168:36 *181:44 0.000120993
98 *179:24 *181:31 0.000220309
99 *179:39 *181:151 0.000141039
100 *179:52 *181:162 9.41642e-05
101 *180:70 *1485:A 9.71197e-05
*RES
1 *1482:X *181:4 9.3 
2 *181:4 *1483:A 28.7821 
3 *181:4 *181:31 26.1429 
4 *181:31 *1490:A 9.3 
5 *181:31 *181:44 14.4286 
6 *181:44 *181:58 37.0179 
7 *181:58 *1485:A 14.7464 
8 *181:58 *181:75 22.8929 
9 *181:75 *1492:A 41.7107 
10 *181:75 *181:92 29.6786 
11 *181:92 *1488:A 30.1571 
12 *181:92 *1484:A 21.2643 
13 *181:44 *181:124 12.7143 
14 *181:124 *1486:A 10.1036 
15 *181:124 *181:151 46.3571 
16 *181:151 *1491:A 9.3 
17 *181:151 *181:162 8 
18 *181:162 *1487:A 34.2464 
19 *181:162 *1489:A 34.1036 
*END

*D_NET *182 0.0167182
*CONN
*I *1531:A I *D sky130_fd_sc_hd__clkbuf_16
*I *1532:A I *D sky130_fd_sc_hd__clkbuf_16
*I *1530:A I *D sky130_fd_sc_hd__clkbuf_16
*I *1529:A I *D sky130_fd_sc_hd__clkbuf_16
*I *1528:X O *D sky130_fd_sc_hd__clkbuf_16
*CAP
1 *1531:A 0.00024502
2 *1532:A 0.000523136
3 *1530:A 0.000590294
4 *1529:A 0.000682457
5 *1528:X 0
6 *182:66 0.00172036
7 *182:12 0.00250212
8 *182:6 0.00218157
9 *1529:A *208:22 5.7903e-06
10 *1529:A *210:56 2.22043e-05
11 *1529:A *220:42 0.00100724
12 *1530:A *187:34 1.94945e-05
13 *1530:A *199:56 0.000274239
14 *1530:A *220:42 9.04146e-05
15 *1531:A *1455:A 4.21517e-05
16 *1532:A *1339:A1 8.64743e-05
17 *1532:A *1498:CLK 0.00014499
18 *1532:A *218:82 7.40526e-05
19 *1532:A *224:53 0
20 *1532:A *226:56 4.20514e-05
21 *182:12 *189:26 1.90936e-05
22 *182:66 *1428:A 0
23 *1332:B *1530:A 9.96487e-05
24 *1337:A *1532:A 1.38495e-05
25 *1426:A *1532:A 0.000388695
26 *1433:A2 *1530:A 0
27 *1503:RESET_B *1532:A 0.000367183
28 *1526:RESET_B *1529:A 1.36734e-05
29 *1526:RESET_B *182:12 0.000365943
30 *1528:A *1529:A 0
31 *39:22 *1529:A 0.000980839
32 *88:62 *1530:A 0
33 *95:36 *1530:A 2.11419e-05
34 *107:40 *1532:A 0.000734823
35 *108:18 *1530:A 0.000413549
36 *109:38 *182:12 0.00054853
37 *117:20 *1531:A 0.000377484
38 *117:20 *182:66 0.000810592
39 *131:26 *182:12 5.5838e-05
40 *131:26 *182:66 0
41 *153:10 *1530:A 0.000688551
42 *156:31 *182:12 2.06178e-05
43 *156:31 *182:66 0.000505511
44 *157:10 *1532:A 1.77525e-05
45 *179:110 *1531:A 2.07809e-05
*RES
1 *1528:X *182:6 13.8 
2 *182:6 *182:12 6.54439 
3 *182:12 *1529:A 33.8528 
4 *182:12 *1530:A 34.2345 
5 *182:6 *182:66 11.406 
6 *182:66 *1532:A 32.3618 
7 *182:66 *1531:A 18.4139 
*END

*D_NET *183 0.0201776
*CONN
*I *1521:CLK I *D sky130_fd_sc_hd__dfrtp_1
*I *1514:CLK I *D sky130_fd_sc_hd__dfrtp_4
*I *1522:CLK I *D sky130_fd_sc_hd__dfrtp_4
*I *1496:CLK I *D sky130_fd_sc_hd__dfrtp_4
*I *1502:CLK I *D sky130_fd_sc_hd__dfrtp_1
*I *1501:CLK I *D sky130_fd_sc_hd__dfrtp_1
*I *1504:CLK I *D sky130_fd_sc_hd__dfrtp_1
*I *1499:CLK I *D sky130_fd_sc_hd__dfrtp_4
*I *1519:CLK I *D sky130_fd_sc_hd__dfrtp_4
*I *1529:X O *D sky130_fd_sc_hd__clkbuf_16
*CAP
1 *1521:CLK 0.000273775
2 *1514:CLK 0
3 *1522:CLK 3.28784e-05
4 *1496:CLK 0.000955088
5 *1502:CLK 3.99336e-05
6 *1501:CLK 0
7 *1504:CLK 0
8 *1499:CLK 0
9 *1519:CLK 0.000305911
10 *1529:X 0
11 *183:83 0.00134762
12 *183:81 0.000412161
13 *183:77 0.000809122
14 *183:68 0.000942444
15 *183:51 0.000543025
16 *183:20 0.000906129
17 *183:18 0.00148427
18 *183:4 0.0010074
19 *1496:CLK *1336:A2 0.00111502
20 *1519:CLK *1342:C 7.25873e-06
21 *1522:CLK *199:56 5.49544e-05
22 *183:18 *1393:B 6.50073e-05
23 *183:20 *1342:C 0
24 *183:20 *201:16 0
25 *183:51 *193:14 2.23698e-05
26 *183:81 *199:56 0.000125724
27 *183:83 *199:56 0.000715653
28 *183:83 *208:22 1.4719e-05
29 *1335:A *1522:CLK 9.66977e-05
30 *1355:B *183:18 0.000433868
31 *1381:B *183:18 0.000215108
32 *1383:C *1521:CLK 0.000199555
33 *1383:C *183:77 0.000225742
34 *1439:B *183:68 0.000103832
35 *1439:B *183:77 8.5182e-05
36 *1445:B *1519:CLK 0.000230568
37 *1458:A *1496:CLK 3.4963e-05
38 *1496:D *1496:CLK 7.88091e-05
39 *1496:RESET_B *1496:CLK 0.000891911
40 *1496:RESET_B *183:83 0.000170578
41 *1499:D *1519:CLK 8.13261e-06
42 *1499:D *183:20 3.67279e-06
43 *1501:RESET_B *183:51 3.34366e-05
44 *1501:RESET_B *183:68 0.000336301
45 *1521:D *1521:CLK 2.25101e-05
46 *32:8 *183:18 0.00105229
47 *32:8 *183:51 8.59075e-05
48 *41:18 *183:20 0.000113064
49 *42:24 *183:51 1.01241e-05
50 *45:14 *183:18 0
51 *45:14 *183:20 0
52 *86:32 *183:51 0.000109035
53 *86:32 *183:68 0.000197984
54 *95:36 *183:51 3.95296e-05
55 *98:14 *183:18 0.000215701
56 *103:61 *183:81 7.6644e-05
57 *105:66 *183:51 2.4461e-05
58 *112:18 *1496:CLK 0.000272344
59 *134:73 *183:18 0.00117488
60 *134:73 *183:51 9.66977e-05
61 *141:16 *1519:CLK 0.000195126
62 *141:16 *183:18 0.000545443
63 *141:16 *183:20 0.00114323
64 *144:26 *183:20 0
65 *153:10 *183:81 1.81709e-05
66 *153:10 *183:83 0.000174376
67 *160:35 *183:68 0
68 *170:18 *1496:CLK 0.000270872
69 *170:18 *183:83 1.03904e-05
*RES
1 *1529:X *183:4 9.3 
2 *183:4 *183:18 39.3214 
3 *183:18 *183:20 14.6964 
4 *183:20 *1519:CLK 20.6571 
5 *183:20 *1499:CLK 13.8 
6 *183:18 *1504:CLK 13.8 
7 *183:4 *183:51 8 
8 *183:51 *1501:CLK 13.8 
9 *183:51 *183:68 12.5357 
10 *183:68 *1502:CLK 10.0321 
11 *183:68 *183:77 6.28571 
12 *183:77 *183:81 6.14286 
13 *183:81 *183:83 9.83929 
14 *183:83 *1496:CLK 40.925 
15 *183:83 *1522:CLK 14.7464 
16 *183:81 *1514:CLK 13.8 
17 *183:77 *1521:CLK 13.9786 
*END

*D_NET *184 0.0146644
*CONN
*I *1516:CLK I *D sky130_fd_sc_hd__dfrtp_2
*I *1513:CLK I *D sky130_fd_sc_hd__dfrtp_4
*I *1526:CLK I *D sky130_fd_sc_hd__dfrtp_4
*I *1500:CLK I *D sky130_fd_sc_hd__dfrtp_2
*I *1533:A I *D sky130_fd_sc_hd__clkbuf_4
*I *1515:CLK I *D sky130_fd_sc_hd__dfrtp_1
*I *1523:CLK I *D sky130_fd_sc_hd__dfrtp_4
*I *1517:CLK I *D sky130_fd_sc_hd__dfrtp_1
*I *1497:CLK I *D sky130_fd_sc_hd__dfrtp_4
*I *1506:CLK I *D sky130_fd_sc_hd__dfrtp_2
*I *1530:X O *D sky130_fd_sc_hd__clkbuf_16
*CAP
1 *1516:CLK 0.000184252
2 *1513:CLK 0
3 *1526:CLK 0.000160029
4 *1500:CLK 8.14958e-05
5 *1533:A 0
6 *1515:CLK 7.62629e-05
7 *1523:CLK 0
8 *1517:CLK 0.000660891
9 *1497:CLK 0.000302539
10 *1506:CLK 0.000270146
11 *1530:X 0
12 *184:99 0.000241021
13 *184:97 0.00105859
14 *184:82 0.000908654
15 *184:59 0.000273261
16 *184:38 0.00136813
17 *184:27 0.000961735
18 *184:12 0.000506427
19 *184:8 0.000384119
20 *184:4 0.000330607
21 *1497:CLK *218:14 7.57144e-05
22 *1497:CLK *218:70 0.000125084
23 *1500:CLK *216:32 1.84865e-05
24 *1506:CLK *1441:B1 2.89016e-05
25 *1517:CLK *1434:A 8.86086e-05
26 *1526:CLK *190:48 8.80625e-05
27 *1526:CLK *210:56 0.000167872
28 *184:8 *1442:A 0.000298483
29 *184:12 *1441:B1 0.000157117
30 *184:12 *215:35 1.02504e-05
31 *184:27 *1441:B1 5.37664e-05
32 *184:38 *203:45 3.69697e-05
33 *184:59 *213:25 6.70364e-05
34 *184:97 *210:56 0.000257294
35 *184:97 *216:32 0.000217698
36 *184:99 *187:44 0
37 *184:99 *210:56 0.000192803
38 *1332:B *184:97 4.41129e-05
39 *1332:B *184:99 8.6229e-06
40 *1441:A1 *1506:CLK 0.000116584
41 *1441:A2 *1506:CLK 5.33005e-05
42 *1456:A *184:8 2.24718e-05
43 *1497:D *1497:CLK 0.000309447
44 *1497:RESET_B *1497:CLK 0.00106187
45 *1500:RESET_B *184:97 0.000257802
46 *1506:RESET_B *1506:CLK 3.66822e-05
47 *1513:D *1526:CLK 3.97356e-05
48 *1515:D *1515:CLK 0.00034887
49 *1517:RESET_B *1517:CLK 1.12166e-05
50 *1523:D *1515:CLK 0.000350569
51 *1526:D *1526:CLK 4.25652e-05
52 *32:16 *1497:CLK 0.000139208
53 *33:16 *1516:CLK 0.000546276
54 *33:16 *184:97 0.000100479
55 *54:24 *184:82 7.58841e-05
56 *55:16 *184:27 5.35905e-05
57 *55:16 *184:38 0.00028989
58 *55:16 *184:59 3.49677e-05
59 *62:10 *184:38 0
60 *62:10 *184:59 0
61 *88:14 *184:82 7.58841e-05
62 *88:62 *1516:CLK 0.000464549
63 *89:14 *184:27 5.88424e-05
64 *89:14 *184:38 0.000187969
65 *109:38 *1526:CLK 5.1588e-05
66 *109:38 *184:99 0.000137492
67 *169:26 *184:12 8.05612e-05
68 *169:26 *184:27 1.10866e-05
*RES
1 *1530:X *184:4 9.3 
2 *184:4 *184:8 3.83929 
3 *184:8 *184:12 6.75 
4 *184:12 *1506:CLK 18.0679 
5 *184:12 *184:27 3.16071 
6 *184:27 *1497:CLK 24.1929 
7 *184:27 *184:38 11.6607 
8 *184:38 *1517:CLK 21.7643 
9 *184:38 *184:59 8.32143 
10 *184:59 *1523:CLK 9.3 
11 *184:59 *1515:CLK 12.7107 
12 *184:8 *1533:A 9.3 
13 *184:4 *184:82 10.0357 
14 *184:82 *1500:CLK 10.5679 
15 *184:82 *184:97 16.7143 
16 *184:97 *184:99 2.55357 
17 *184:99 *1526:CLK 17.8179 
18 *184:99 *1513:CLK 13.8 
19 *184:97 *1516:CLK 19.2643 
*END

*D_NET *185 0.0144864
*CONN
*I *1520:CLK I *D sky130_fd_sc_hd__dfrtp_4
*I *1505:CLK I *D sky130_fd_sc_hd__dfrtp_4
*I *1518:CLK I *D sky130_fd_sc_hd__dfrtp_2
*I *1534:A I *D sky130_fd_sc_hd__clkinv_2
*I *1525:CLK I *D sky130_fd_sc_hd__dfrtp_4
*I *1524:CLK I *D sky130_fd_sc_hd__dfrtp_4
*I *1508:CLK I *D sky130_fd_sc_hd__dfrtp_2
*I *1531:X O *D sky130_fd_sc_hd__clkbuf_16
*CAP
1 *1520:CLK 0.000742545
2 *1505:CLK 0
3 *1518:CLK 0.00040666
4 *1534:A 8.40758e-05
5 *1525:CLK 6.37909e-05
6 *1524:CLK 8.42409e-05
7 *1508:CLK 0.000427275
8 *1531:X 0
9 *185:64 0.000516501
10 *185:62 0.00157683
11 *185:16 0.000659593
12 *185:12 0.000412812
13 *185:6 0.000466579
14 *185:4 0.000906008
15 *1520:CLK *192:14 0
16 *1520:CLK *216:18 0.000252092
17 *1524:CLK *224:53 1.65169e-05
18 *1337:A *1508:CLK 0.000962508
19 *1337:A *185:16 0.000294274
20 *1480:A *185:62 5.33005e-05
21 *1505:D *1518:CLK 0.000237356
22 *1508:RESET_B *1508:CLK 7.56943e-05
23 *1520:D *1520:CLK 1.07719e-05
24 *1521:RESET_B *1518:CLK 0.000227539
25 *35:12 *1518:CLK 0.000125057
26 *43:16 *1508:CLK 0.000139907
27 *66:14 *1524:CLK 0.000135028
28 *79:8 *1518:CLK 0.000206267
29 *81:14 *1508:CLK 0.00091157
30 *81:14 *1524:CLK 6.05161e-06
31 *106:33 *1518:CLK 0.000192363
32 *106:33 *1520:CLK 0.000170945
33 *106:33 *185:64 9.61853e-05
34 *107:40 *185:16 9.30459e-05
35 *117:20 *1534:A 3.14003e-05
36 *117:24 *185:6 0.000628538
37 *117:24 *185:12 5.33005e-05
38 *117:24 *185:62 0.0013485
39 *131:26 *1508:CLK 2.42516e-05
40 *131:26 *185:16 4.18858e-05
41 *142:34 *1534:A 0.000190738
42 *154:12 *1518:CLK 0
43 *155:8 *1520:CLK 1.58163e-05
44 *170:64 *1525:CLK 6.3629e-05
45 *170:64 *185:12 0.000531065
46 *179:110 *1534:A 7.78837e-05
47 *180:48 *185:6 0.000177055
48 *180:48 *185:12 8.66739e-05
49 *180:58 *1525:CLK 0.000118841
50 *180:58 *185:12 0.000190876
51 *180:156 *185:6 0.000150923
52 *180:156 *185:62 0.000201649
*RES
1 *1531:X *185:4 9.3 
2 *185:4 *185:6 6.28571 
3 *185:6 *185:12 6.42857 
4 *185:12 *185:16 8.57143 
5 *185:16 *1508:CLK 28.0321 
6 *185:16 *1524:CLK 15.5857 
7 *185:12 *1525:CLK 11.0857 
8 *185:6 *1534:A 20.8536 
9 *185:4 *185:62 21.0536 
10 *185:62 *185:64 2.55357 
11 *185:64 *1518:CLK 25.5143 
12 *185:64 *1505:CLK 13.8 
13 *185:62 *1520:CLK 25.3179 
*END

*D_NET *186 0.0153872
*CONN
*I *1510:CLK I *D sky130_fd_sc_hd__dfrtp_2
*I *1498:CLK I *D sky130_fd_sc_hd__dfrtp_2
*I *1535:A I *D sky130_fd_sc_hd__clkbuf_4
*I *1503:CLK I *D sky130_fd_sc_hd__dfrtp_4
*I *1511:CLK I *D sky130_fd_sc_hd__dfrtp_4
*I *1509:CLK I *D sky130_fd_sc_hd__dfrtp_2
*I *1495:CLK I *D sky130_fd_sc_hd__dfrtp_4
*I *1512:CLK I *D sky130_fd_sc_hd__dfrtp_4
*I *1507:CLK I *D sky130_fd_sc_hd__dfrtp_4
*I *1532:X O *D sky130_fd_sc_hd__clkbuf_16
*CAP
1 *1510:CLK 6.15671e-05
2 *1498:CLK 0.000195655
3 *1535:A 0
4 *1503:CLK 0.000325454
5 *1511:CLK 0.000450028
6 *1509:CLK 0.00048095
7 *1495:CLK 1.99167e-05
8 *1512:CLK 5.77779e-05
9 *1507:CLK 0.000471439
10 *1532:X 0
11 *186:117 0.000486233
12 *186:91 0.000424074
13 *186:89 0.00043444
14 *186:47 0.00119667
15 *186:34 0.000655272
16 *186:23 0.000510676
17 *186:8 0.000665818
18 *186:4 0.000217959
19 *1498:CLK *199:107 2.77258e-05
20 *1498:CLK *226:56 0.000146638
21 *1503:CLK *199:107 9.83442e-05
22 *1509:CLK *1527:A 0.000122494
23 *1509:CLK *204:10 1.58163e-05
24 *1509:CLK *206:14 7.02611e-05
25 *1509:CLK *207:36 0.000103802
26 *1509:CLK *208:123 4.65158e-06
27 *1510:CLK *1435:A 8.17274e-05
28 *1510:CLK *207:79 2.79421e-05
29 *1511:CLK *1527:A 0.000103646
30 *1511:CLK *206:14 1.5424e-05
31 *1512:CLK *205:54 9.35419e-05
32 *186:8 *1357:A 0.000136958
33 *186:8 *1357:B 0.000186765
34 *186:8 *1400:B 0.00056681
35 *186:8 *1455:B 0.000139907
36 *186:8 *198:16 1.02936e-05
37 *186:8 *205:50 4.03934e-05
38 *186:47 *206:14 4.37485e-06
39 *186:89 *1357:B 0.000129369
40 *186:89 *1400:B 0.000272745
41 *186:89 *199:12 0.000140088
42 *186:89 *199:27 9.85424e-06
43 *186:91 *199:27 4.12028e-05
44 *186:117 *1435:A 0.000219711
45 *186:117 *205:50 0.000396149
46 *186:117 *207:79 3.14048e-05
47 *1354:A *186:34 0.000351032
48 *1424:A *1498:CLK 0.00018077
49 *1424:A *1503:CLK 0.000120504
50 *1468:A *1511:CLK 0.000564002
51 *1506:D *1507:CLK 0.000158146
52 *1509:RESET_B *1509:CLK 9.69072e-05
53 *1511:D *1511:CLK 8.07313e-05
54 *1511:RESET_B *1511:CLK 2.72654e-05
55 *1511:RESET_B *186:34 0
56 *1511:RESET_B *186:47 0
57 *1512:D *1512:CLK 7.3237e-05
58 *1516:RESET_B *1507:CLK 0.000743722
59 *1516:RESET_B *186:23 7.35879e-05
60 *1516:RESET_B *186:34 0.000156669
61 *1516:RESET_B *186:47 6.1684e-05
62 *1532:A *1498:CLK 0.00014499
63 *20:18 *1495:CLK 5.33433e-05
64 *22:20 *186:34 0
65 *54:12 *1511:CLK 0.000201529
66 *54:12 *186:47 3.85569e-05
67 *55:8 *1509:CLK 0.000456642
68 *55:8 *1511:CLK 6.05161e-06
69 *106:27 *1495:CLK 9.90431e-05
70 *106:27 *186:34 7.75093e-05
71 *106:27 *186:47 2.31791e-05
72 *177:14 *1512:CLK 1.39726e-05
73 *180:70 *1507:CLK 0.000250744
74 *180:125 *1503:CLK 2.22674e-05
75 *180:125 *186:89 2.88045e-05
76 *180:125 *186:91 7.95735e-05
77 *181:58 *1507:CLK 8.6229e-06
78 *181:75 *1507:CLK 0.000713452
79 *181:75 *186:23 0.00016674
80 *181:75 *186:34 0.000421951
*RES
1 *1532:X *186:4 9.3 
2 *186:4 *186:8 9.96429 
3 *186:8 *1507:CLK 27.4786 
4 *186:8 *186:23 2.25 
5 *186:23 *1512:CLK 15.5679 
6 *186:23 *186:34 9.83929 
7 *186:34 *1495:CLK 14.7464 
8 *186:34 *186:47 9.48214 
9 *186:47 *1509:CLK 28.55 
10 *186:47 *1511:CLK 29.9071 
11 *186:4 *186:89 8.125 
12 *186:89 *186:91 2.25 
13 *186:91 *1503:CLK 18.4786 
14 *186:91 *1535:A 13.8 
15 *186:89 *186:117 9.55357 
16 *186:117 *1498:CLK 22.8357 
17 *186:117 *1510:CLK 10.675 
*END

*D_NET *187 0.0396804
*CONN
*I *1451:B I *D sky130_fd_sc_hd__and3b_1
*I *1327:C I *D sky130_fd_sc_hd__and3_2
*I *1455:C I *D sky130_fd_sc_hd__or3_1
*I *1339:A2 I *D sky130_fd_sc_hd__a21oi_1
*I *1338:B1 I *D sky130_fd_sc_hd__a21oi_1
*I *1332:A I *D sky130_fd_sc_hd__nor2_1
*I *1454:A1 I *D sky130_fd_sc_hd__a21oi_1
*I *1336:A2 I *D sky130_fd_sc_hd__a21oi_1
*I *1523:Q O *D sky130_fd_sc_hd__dfrtp_4
*CAP
1 *1451:B 6.03603e-05
2 *1327:C 0
3 *1455:C 0
4 *1339:A2 0.000190819
5 *1338:B1 0
6 *1332:A 0
7 *1454:A1 0.000800662
8 *1336:A2 0.000430787
9 *1523:Q 0.000478775
10 *187:158 0.00136719
11 *187:145 0.00179818
12 *187:128 0.0012713
13 *187:111 0.00144701
14 *187:68 0.00252411
15 *187:44 0.00369321
16 *187:34 0.00128767
17 *187:22 0.00220396
18 *187:12 0.00145712
19 *1336:A2 *188:90 0.000230699
20 *1339:A2 *1339:A1 0.000351912
21 *1339:A2 *1350:A 2.74784e-05
22 *1339:A2 *211:61 0.0001243
23 *1339:A2 *224:14 1.21258e-05
24 *1339:A2 *224:22 1.92789e-05
25 *1339:A2 *224:53 7.69588e-05
26 *1454:A1 *191:28 0.000219711
27 *1454:A1 *196:14 1.90431e-05
28 *1454:A1 *208:16 0
29 *187:22 *199:56 0.000263176
30 *187:22 *204:66 0.00179785
31 *187:34 *1369:A 9.41642e-05
32 *187:34 *1442:A 9.41642e-05
33 *187:34 *199:56 0.000369846
34 *187:44 *208:16 0.000305523
35 *187:68 *220:42 4.13903e-05
36 *187:111 *1338:A1 0.000304394
37 *187:111 *189:95 8.43535e-06
38 *187:128 *1328:A 9.80173e-05
39 *187:128 *189:95 2.14757e-05
40 *187:145 *1339:A1 0.00028401
41 *187:145 *1455:A 5.52238e-05
42 *187:145 *1455:B 1.58163e-05
43 *187:145 *207:79 0.000150618
44 *187:145 *211:61 0.000753295
45 *187:145 *226:56 0.000232966
46 *187:158 *1455:A 0.000354111
47 *187:158 *192:14 0.000342363
48 *187:158 *226:56 0.00166601
49 *1328:B *187:128 0.000144581
50 *1332:B *187:34 2.2355e-05
51 *1338:A2 *187:111 1.98839e-05
52 *1339:B1 *187:128 2.06152e-05
53 *1433:A2 *187:44 0
54 *1439:A *1454:A1 0.00122202
55 *1441:A1 *187:22 0.00046218
56 *1441:A1 *187:34 0.000144398
57 *1449:B1 *187:68 1.41642e-05
58 *1454:B1 *1454:A1 0.000146213
59 *1496:CLK *1336:A2 0.00111502
60 *1497:RESET_B *187:111 0.000377682
61 *1512:D *187:22 0.00179978
62 *1515:D *187:12 5.89548e-05
63 *1530:A *187:34 1.94945e-05
64 *29:30 *187:68 0.000912972
65 *30:8 *187:111 2.54304e-06
66 *33:16 *187:34 0.000302447
67 *47:28 *187:22 0
68 *52:24 *1336:A2 8.06456e-05
69 *53:12 *1339:A2 9.80173e-05
70 *60:20 *1454:A1 0
71 *76:50 *187:158 0.000464068
72 *80:12 *187:34 0.000119303
73 *84:20 *187:128 0.000584482
74 *85:10 *187:128 9.60939e-05
75 *88:62 *187:44 4.06782e-05
76 *90:22 *187:68 0
77 *94:10 *1451:B 0.000199626
78 *94:10 *1454:A1 1.61405e-05
79 *94:10 *187:22 0.00032859
80 *95:36 *187:34 0.000314193
81 *95:36 *187:68 0.000226137
82 *109:38 *187:44 2.74931e-05
83 *115:30 *187:68 0.00033577
84 *115:34 *187:68 9.71197e-05
85 *117:20 *187:34 0.000218409
86 *127:12 *187:68 0
87 *134:37 *187:12 7.88091e-05
88 *134:73 *187:68 0.000437886
89 *141:14 *1339:A2 1.94879e-05
90 *144:14 *187:68 0.000436245
91 *153:10 *187:22 0.000140344
92 *153:10 *187:34 9.38712e-05
93 *160:35 *187:68 6.28426e-05
94 *168:24 *187:68 0
95 *169:26 *187:68 0.000170989
96 *170:14 *187:22 3.9865e-05
97 *170:18 *1336:A2 0.000563979
98 *176:12 *1451:B 9.84045e-05
99 *176:12 *187:22 0.000160087
100 *184:99 *187:44 0
*RES
1 *1523:Q *187:12 19.8179 
2 *187:12 *187:22 40.8929 
3 *187:22 *187:34 22.6071 
4 *187:34 *187:44 10.2264 
5 *187:44 *187:68 49.7916 
6 *187:68 *1336:A2 28.4964 
7 *187:44 *1454:A1 25.4078 
8 *187:34 *1332:A 13.8 
9 *187:22 *187:111 16.6964 
10 *187:111 *1338:B1 9.3 
11 *187:111 *187:128 16 
12 *187:128 *1339:A2 19.425 
13 *187:128 *187:145 16 
14 *187:145 *1455:C 9.3 
15 *187:145 *187:158 44.7143 
16 *187:158 *1327:C 9.3 
17 *187:12 *1451:B 16.3536 
*END

*D_NET *188 0.0442494
*CONN
*I *1327:B I *D sky130_fd_sc_hd__and3_2
*I *1459:A1 I *D sky130_fd_sc_hd__a21boi_2
*I *1336:B1 I *D sky130_fd_sc_hd__a21oi_1
*I *1457:B I *D sky130_fd_sc_hd__or3_1
*I *1330:B I *D sky130_fd_sc_hd__nor2_2
*I *1451:A_N I *D sky130_fd_sc_hd__and3b_1
*I *1452:A2 I *D sky130_fd_sc_hd__a2111o_2
*I *1524:Q O *D sky130_fd_sc_hd__dfrtp_4
*CAP
1 *1327:B 0.00159263
2 *1459:A1 7.65639e-05
3 *1336:B1 9.16499e-06
4 *1457:B 0.0011708
5 *1330:B 3.40492e-05
6 *1451:A_N 0.00016329
7 *1452:A2 0.000713102
8 *1524:Q 8.4076e-05
9 *188:90 0.00152658
10 *188:65 0.00360662
11 *188:59 0.00135337
12 *188:37 0.000852387
13 *188:31 0.00235226
14 *188:21 0.00389471
15 *188:8 0.00176045
16 *1451:A_N *213:25 0.000655732
17 *1457:B *190:22 0.000856849
18 *1457:B *208:16 9.87617e-05
19 *1457:B *208:41 0.000129147
20 *1457:B *216:42 0.000135028
21 *1457:B *218:24 0.000170868
22 *1459:A1 *1333:A1_N 9.41642e-05
23 *1459:A1 *1400:B 0.000178847
24 *188:21 *206:49 2.06112e-05
25 *188:31 *213:25 0.000285808
26 *188:31 *213:35 0
27 *188:37 *213:25 0.00128871
28 *188:59 *208:108 0
29 *188:65 *1333:A1_N 2.60785e-05
30 *188:65 *1375:A 0.000560927
31 *188:65 *203:31 0.000177815
32 *188:65 *208:41 8.85631e-05
33 *188:65 *218:70 0.000125243
34 *188:65 *221:10 0.000401561
35 *188:65 *226:16 0.000147585
36 *188:65 *226:27 9.97149e-05
37 *1336:A2 *188:90 0.000230699
38 *1346:D *188:90 0.000137829
39 *1352:A1 *1452:A2 0.0018268
40 *1352:A1 *188:21 0.000149607
41 *1395:B *188:90 0.000121799
42 *1451:C *1451:A_N 9.93135e-05
43 *1459:A2 *1459:A1 2.28598e-05
44 *1488:A *1327:B 0.000242581
45 *1497:RESET_B *188:65 4.43081e-05
46 *1504:RESET_B *188:90 3.72364e-05
47 *1513:D *1457:B 8.64516e-06
48 *1513:RESET_B *1457:B 0.000199474
49 *1513:RESET_B *188:65 6.06437e-05
50 *1515:RESET_B *188:59 0
51 *1522:D *188:90 0.000281965
52 *22:12 *188:31 0.000649603
53 *38:12 *188:90 0
54 *39:22 *188:90 0.000138793
55 *47:28 *188:90 0.00111633
56 *48:20 *188:59 5.82204e-05
57 *48:20 *188:65 0.000536664
58 *52:24 *188:90 7.89309e-05
59 *54:24 *1330:B 0
60 *66:14 *188:8 3.82357e-05
61 *70:18 *188:59 6.66715e-05
62 *76:50 *188:31 0.000139682
63 *84:12 *1327:B 0.00129739
64 *84:49 *1459:A1 1.39726e-05
65 *86:10 *1330:B 5.48781e-05
66 *93:14 *188:21 0.000901786
67 *95:53 *1451:A_N 0.000915568
68 *95:53 *188:37 0.000343376
69 *102:16 *1336:B1 5.50052e-05
70 *104:41 *1452:A2 0.000119679
71 *107:46 *1457:B 0.000395877
72 *109:38 *1457:B 0.000382744
73 *109:38 *188:65 0.000538793
74 *110:24 *188:65 1.94879e-05
75 *132:14 *1452:A2 0.00043181
76 *138:12 *1452:A2 9.23895e-06
77 *142:34 *1452:A2 0.000799214
78 *142:34 *188:21 0.000922553
79 *143:20 *1336:B1 5.66971e-05
80 *147:74 *188:21 4.68745e-05
81 *147:84 *188:59 0.000645697
82 *147:84 *188:65 0.000163475
83 *149:46 *188:21 0.000449374
84 *162:26 *188:65 0.000109425
85 *170:18 *188:90 0.00254577
86 *170:72 *188:8 7.43578e-06
87 *178:14 *1457:B 3.52777e-05
88 *179:131 *188:21 6.85784e-05
89 *179:131 *188:31 9.6788e-05
90 *181:92 *1327:B 0.000689644
91 *181:92 *188:31 0.00111399
*RES
1 *1524:Q *188:8 15.1571 
2 *188:8 *1452:A2 37.9071 
3 *188:8 *188:21 31.9464 
4 *188:21 *188:31 32.7679 
5 *188:31 *188:37 14.2321 
6 *188:37 *1451:A_N 18.05 
7 *188:37 *1330:B 19.0321 
8 *188:31 *188:59 13.125 
9 *188:59 *188:65 30.4286 
10 *188:65 *1457:B 35.2286 
11 *188:65 *188:90 45.6071 
12 *188:90 *1336:B1 14.3357 
13 *188:59 *1459:A1 15.9964 
14 *188:21 *1327:B 35.0321 
*END

*D_NET *189 0.0409458
*CONN
*I *1328:A I *D sky130_fd_sc_hd__nand2_1
*I *1455:B I *D sky130_fd_sc_hd__or3_1
*I *1333:B2 I *D sky130_fd_sc_hd__o2bb2a_1
*I *1452:A1 I *D sky130_fd_sc_hd__a2111o_2
*I *1331:A I *D sky130_fd_sc_hd__nand2_2
*I *1450:B I *D sky130_fd_sc_hd__nor2_2
*I *1525:Q O *D sky130_fd_sc_hd__dfrtp_4
*CAP
1 *1328:A 2.30013e-05
2 *1455:B 0.000654753
3 *1333:B2 0.00201665
4 *1452:A1 1.72105e-05
5 *1331:A 0.00158839
6 *1450:B 0
7 *1525:Q 0
8 *189:95 0.00301859
9 *189:87 0.000811474
10 *189:47 0.00284928
11 *189:36 0.00122218
12 *189:32 0.00152844
13 *189:28 0.00203596
14 *189:26 0.00151399
15 *189:6 0.00146926
16 *1331:A *1540:A 0.000313215
17 *1333:B2 *1333:A1_N 0.000103326
18 *1455:B *1357:A 8.6229e-06
19 *1455:B *1400:B 6.12434e-05
20 *1455:B *198:16 9.0145e-05
21 *1455:B *205:54 6.96806e-05
22 *1455:B *206:16 6.705e-05
23 *1455:B *213:35 0.000432834
24 *189:26 *1428:A 0
25 *189:26 *221:37 0.000351992
26 *189:28 *1428:A 0.000190738
27 *189:32 *1471:A 1.52978e-05
28 *189:36 *1372:B1 1.69961e-05
29 *189:36 *1450:A 4.10796e-05
30 *189:36 *1482:A 0.00018372
31 *189:36 *191:66 8.42609e-05
32 *189:36 *220:12 0.000133965
33 *189:36 *220:55 0.000191373
34 *189:87 *1428:A 0.00010103
35 *189:95 *1338:A1 6.26177e-05
36 *189:95 *206:16 0.000294678
37 *189:95 *206:24 0.000196562
38 *1329:B *189:26 0.000353909
39 *1333:A2_N *1333:B2 3.80953e-06
40 *1333:B1 *1333:B2 7.16452e-05
41 *1337:B *189:28 0
42 *1337:B *189:32 0
43 *1338:A2 *189:95 9.41642e-05
44 *1339:B1 *1328:A 4.43256e-05
45 *1339:B1 *189:95 5.71472e-05
46 *1352:A1 *1331:A 0.000125717
47 *1352:A1 *1452:A1 4.66511e-05
48 *1384:A *189:36 0.00170794
49 *1398:A *189:32 0.000234416
50 *1440:A1 *1331:A 0.0012068
51 *1440:B1 *1331:A 1.63337e-05
52 *1440:B2 *1331:A 8.70594e-05
53 *1440:C1 *1331:A 5.33005e-05
54 *1446:B *189:32 0
55 *1459:A2 *1333:B2 0.000243828
56 *1459:B1_N *189:87 8.6229e-06
57 *1479:A *1455:B 0.000267738
58 *1511:RESET_B *1455:B 0.000205552
59 *1512:RESET_B *1455:B 4.84658e-05
60 *1516:RESET_B *1455:B 7.46461e-05
61 *1516:RESET_B *189:95 0.00048097
62 *22:20 *1455:B 8.39939e-05
63 *22:20 *189:87 1.8791e-05
64 *30:8 *189:95 0.000120895
65 *49:12 *189:26 0.000312819
66 *51:8 *1331:A 2.87085e-05
67 *78:12 *189:26 0.000262462
68 *78:12 *189:87 2.85805e-05
69 *84:49 *1333:B2 0.00170113
70 *84:49 *1455:B 3.43708e-05
71 *85:10 *189:26 0.000520885
72 *85:10 *189:87 0.000500922
73 *85:22 *189:28 0.000767921
74 *85:22 *189:32 0.00032507
75 *87:51 *189:87 0.000230616
76 *88:74 *189:26 0.000311121
77 *89:12 *1333:B2 2.89114e-05
78 *95:12 *189:36 0.002011
79 *95:68 *189:36 0.00187455
80 *95:83 *189:36 0.000477933
81 *104:16 *1331:A 1.75989e-05
82 *104:41 *1331:A 1.01241e-05
83 *115:101 *1331:A 9.25014e-06
84 *119:12 *189:36 4.13595e-05
85 *156:10 *189:28 0
86 *156:31 *189:26 0.000917655
87 *168:36 *1331:A 0.000125717
88 *168:36 *1452:A1 5.59013e-05
89 *176:43 *189:47 0.00174621
90 *177:14 *1455:B 0.000274761
91 *179:24 *189:36 0.000475677
92 *180:70 *189:87 4.58194e-05
93 *181:75 *1455:B 8.9647e-05
94 *182:12 *189:26 1.90936e-05
95 *186:8 *1455:B 0.000139907
96 *187:111 *189:95 8.43535e-06
97 *187:128 *1328:A 9.80173e-05
98 *187:128 *189:95 2.14757e-05
99 *187:145 *1455:B 1.58163e-05
*RES
1 *1525:Q *189:6 13.8 
2 *189:6 *189:26 44.75 
3 *189:26 *189:28 10.4464 
4 *189:28 *189:32 11 
5 *189:32 *189:36 43.2679 
6 *189:36 *1450:B 9.3 
7 *189:28 *189:47 25.9643 
8 *189:47 *1331:A 39.6393 
9 *189:47 *1452:A1 14.5321 
10 *189:6 *189:87 22.5179 
11 *189:87 *189:95 14.4286 
12 *189:95 *1333:B2 40.2107 
13 *189:95 *1455:B 40.6393 
14 *189:87 *1328:A 10.2464 
*END

*D_NET *190 0.0382778
*CONN
*I *1330:A I *D sky130_fd_sc_hd__nor2_2
*I *1452:D1 I *D sky130_fd_sc_hd__a2111o_2
*I *1329:A I *D sky130_fd_sc_hd__xnor2_1
*I *1455:A I *D sky130_fd_sc_hd__or3_1
*I *1457:A I *D sky130_fd_sc_hd__or3_1
*I *1450:A I *D sky130_fd_sc_hd__nor2_2
*I *1526:Q O *D sky130_fd_sc_hd__dfrtp_4
*CAP
1 *1330:A 0.000757291
2 *1452:D1 0.00083839
3 *1329:A 2.37855e-05
4 *1455:A 0.00104379
5 *1457:A 0
6 *1450:A 0.000197319
7 *1526:Q 6.48141e-05
8 *190:109 0.00149687
9 *190:73 0.000990265
10 *190:58 0.00194114
11 *190:48 0.0026203
12 *190:28 0.00140166
13 *190:22 0.00203061
14 *190:8 0.00200254
15 *1330:A *1400:A 5.54272e-05
16 *1330:A *213:25 0.000271898
17 *1452:D1 *1347:D 0.000115815
18 *1452:D1 *1527:A 0.000118161
19 *1452:D1 *1540:A 9.71259e-06
20 *1452:D1 *203:12 0.000266836
21 *1452:D1 *205:10 0.000418394
22 *1452:D1 *221:37 0.000119251
23 *1455:A *1386:B 0.000178656
24 *1455:A *207:79 0.000109256
25 *1455:A *224:14 7.50766e-05
26 *190:22 *215:35 0.000170484
27 *190:28 *1342:D 2.73453e-05
28 *190:28 *209:14 0.000733523
29 *190:28 *219:16 0.000509877
30 *190:58 *202:57 5.54183e-05
31 *190:58 *221:37 0.000166932
32 *190:73 *221:37 1.21258e-05
33 *190:109 *202:57 6.55404e-05
34 *190:109 *208:41 0.000300812
35 *190:109 *210:56 0.000276669
36 *190:109 *221:10 0.000103211
37 *190:109 *224:22 0.000219711
38 *231:DIODE *190:28 0.000141734
39 *1329:B *190:58 0.000770924
40 *1329:B *190:73 0.000114577
41 *1365:C *1330:A 0.00050009
42 *1457:B *190:22 0.000856849
43 *1457:C *190:22 0.000303972
44 *1498:D *1455:A 0.000542152
45 *1515:RESET_B *190:58 1.10856e-05
46 *1524:RESET_B *1455:A 0
47 *1526:CLK *190:48 8.80625e-05
48 *1526:D *190:48 3.11406e-05
49 *1526:D *190:58 0.00230941
50 *1526:D *190:73 8.76257e-05
51 *1531:A *1455:A 4.21517e-05
52 *25:18 *190:28 0.000839625
53 *33:16 *1330:A 0.00119351
54 *51:8 *1452:D1 0.00161643
55 *67:10 *1455:A 0.000585688
56 *68:16 *190:58 5.25862e-06
57 *76:50 *1455:A 0.000207459
58 *80:12 *190:109 0.000221634
59 *84:80 *1455:A 0.000490373
60 *86:10 *1330:A 0
61 *95:53 *1330:A 0.00154011
62 *95:98 *1452:D1 0
63 *107:46 *190:22 0.000411364
64 *107:46 *190:28 0.000757925
65 *149:14 *1455:A 0.000128571
66 *153:10 *190:109 0.000275009
67 *159:16 *190:58 6.70563e-05
68 *159:16 *190:109 0.000440465
69 *160:35 *190:48 9.41642e-05
70 *170:64 *190:109 0.00026023
71 *175:12 *1450:A 9.18429e-05
72 *175:12 *190:28 0.00212788
73 *175:34 *190:22 0.000223993
74 *176:12 *190:22 0.00012747
75 *178:14 *190:28 0.000139907
76 *179:110 *1455:A 0.000249908
77 *180:44 *1452:D1 0.000142812
78 *187:145 *1455:A 5.52238e-05
79 *187:158 *1455:A 0.000354111
80 *189:36 *1450:A 4.10796e-05
*RES
1 *1526:Q *190:8 10.5679 
2 *190:8 *190:22 25.9107 
3 *190:22 *190:28 46.4821 
4 *190:28 *1450:A 17.2286 
5 *190:22 *1457:A 9.3 
6 *190:8 *190:48 16.9464 
7 *190:48 *190:58 28.8036 
8 *190:58 *1455:A 47.1393 
9 *190:58 *190:73 2.58929 
10 *190:73 *1329:A 9.72857 
11 *190:73 *1452:D1 42.2643 
12 *190:48 *190:109 34.4821 
13 *190:109 *1330:A 38.0679 
*END

*D_NET *191 0.0365706
*CONN
*I *1493:A I *D sky130_fd_sc_hd__inv_2
*I *1471:A I *D sky130_fd_sc_hd__buf_4
*I *1482:A I *D sky130_fd_sc_hd__clkbuf_8
*I *1494:A I *D sky130_fd_sc_hd__inv_2
*I *1460:A I *D sky130_fd_sc_hd__clkbuf_8
*I *1536:X O *D sky130_fd_sc_hd__clkbuf_4
*CAP
1 *1493:A 5.03442e-05
2 *1471:A 0.000419081
3 *1482:A 0.000786075
4 *1494:A 0.00129285
5 *1460:A 0
6 *1536:X 0.000880969
7 *191:66 0.00154299
8 *191:43 0.00228448
9 *191:41 0.00134701
10 *191:30 0.00104872
11 *191:28 0.00302334
12 *191:16 0.00352188
13 *191:12 0.00178536
14 *1494:A *1349:A1 9.15842e-06
15 *1494:A *1382:A 0.000207468
16 *1494:A *201:62 0.000427371
17 *1494:A *220:66 7.90803e-05
18 *191:12 *1434:A 0.00100021
19 *191:28 *226:16 0.000297553
20 *191:41 *214:34 9.41642e-05
21 *191:41 *220:89 0.000516151
22 *191:43 *220:66 0.000188967
23 *191:43 *220:89 0.00109181
24 *191:66 *207:122 0.000173628
25 *1337:B *1471:A 0
26 *1382:B *1494:A 2.59355e-05
27 *1383:C *191:28 5.30147e-05
28 *1401:A *1494:A 0.000230482
29 *1401:C *1494:A 9.33677e-05
30 *1420:A2 *191:43 9.13991e-05
31 *1425:A *1482:A 1.04232e-05
32 *1425:C *1482:A 1.95435e-05
33 *1446:A *191:28 6.05161e-06
34 *1446:B *1471:A 5.4061e-05
35 *1446:B *1482:A 0.000303135
36 *1454:A1 *191:28 0.000219711
37 *1454:A2 *191:28 7.43578e-06
38 *1454:B1 *191:28 0.000267674
39 *1483:A *1482:A 9.58181e-05
40 *1508:D *1493:A 5.17614e-05
41 *1515:D *191:12 5.42384e-07
42 *1515:D *191:16 0.000498758
43 *1517:D *191:12 1.46689e-05
44 *1521:RESET_B *191:28 3.90159e-05
45 *1521:RESET_B *191:30 0.000769854
46 *1521:RESET_B *191:41 0.000804837
47 *31:14 *1471:A 0.000148189
48 *32:16 *191:16 0.00126764
49 *49:12 *1493:A 7.22686e-05
50 *52:16 *1494:A 0.00156876
51 *52:24 *1494:A 1.54142e-05
52 *67:10 *191:41 0.00010047
53 *91:16 *1471:A 1.02504e-05
54 *95:83 *1494:A 0
55 *95:83 *191:43 0
56 *95:83 *191:66 0.000538339
57 *97:18 *1494:A 0
58 *105:70 *191:28 0.0010749
59 *105:74 *191:28 0.000523658
60 *114:18 *191:12 4.29143e-05
61 *114:18 *191:16 0.000491521
62 *115:28 *1482:A 0.000160079
63 *115:30 *1482:A 0.000104283
64 *119:12 *1482:A 0.000181796
65 *119:12 *191:66 0.00146154
66 *126:28 *1494:A 0.000224582
67 *143:20 *1471:A 0
68 *146:20 *191:16 0.000279934
69 *149:14 *191:41 0.00019507
70 *149:14 *191:43 0.000363954
71 *152:10 *191:43 9.96974e-05
72 *158:8 *191:28 0.000299204
73 *164:8 *191:12 7.59753e-06
74 *166:10 *191:16 0.000297573
75 *174:40 *1471:A 0
76 *174:40 *1482:A 0.00030485
77 *176:37 *191:16 0.000271253
78 *180:25 *1494:A 9.84673e-05
79 *180:31 *1494:A 0.00027237
80 *181:31 *1482:A 8.45367e-05
81 *189:32 *1471:A 1.52978e-05
82 *189:36 *1482:A 0.00018372
83 *189:36 *191:66 8.42609e-05
*RES
1 *1536:X *191:12 26.1304 
2 *191:12 *191:16 33.3125 
3 *191:16 *191:28 44.5536 
4 *191:28 *191:30 7.51786 
5 *191:30 *1460:A 9.3 
6 *191:30 *191:41 19.2321 
7 *191:41 *191:43 17.125 
8 *191:43 *1494:A 46.6214 
9 *191:43 *191:66 19.1429 
10 *191:66 *1482:A 33.05 
11 *191:66 *1471:A 26.0143 
12 *191:41 *1493:A 15.1571 
*END

*D_NET *192 0.0189783
*CONN
*I *1537:A I *D sky130_fd_sc_hd__buf_1
*I *1527:X O *D sky130_fd_sc_hd__buf_1
*CAP
1 *1537:A 0.000772774
2 *1527:X 0
3 *192:14 0.00281181
4 *192:6 0.0060661
5 *192:4 0.00402707
6 *1537:A *214:10 0.000169959
7 *192:6 *1527:A 0.000188997
8 *192:14 *1327:A 0.000414229
9 *192:14 *1421:A1 0.000315887
10 *192:14 *198:18 0.000156386
11 *1378:A *1537:A 0
12 *1520:CLK *192:14 0
13 *1520:RESET_B *192:14 0
14 *53:10 *192:14 0.000123762
15 *54:16 *192:6 0.00132094
16 *106:33 *192:14 0
17 *118:20 *192:6 0.00216621
18 *124:30 *1537:A 0.000101812
19 *187:158 *192:14 0.000342363
*RES
1 *1527:X *192:4 9.3 
2 *192:4 *192:6 56.8036 
3 *192:6 *192:14 49.2143 
4 *192:14 *1537:A 32.6929 
*END

*D_NET *193 0.0209557
*CONN
*I *1538:A I *D sky130_fd_sc_hd__buf_1
*I *237:DIODE I *D sky130_fd_sc_hd__diode_2
*I *1453:Y O *D sky130_fd_sc_hd__nor2_1
*CAP
1 *1538:A 0.000421462
2 *237:DIODE 0
3 *1453:Y 0.00128309
4 *193:28 0.000469088
5 *193:22 0.00336149
6 *193:20 0.00342422
7 *193:14 0.00139346
8 *193:14 *208:16 1.94879e-05
9 *193:22 *1428:A 0.000227636
10 *193:22 *220:42 0.00017754
11 *1428:B *193:22 5.64097e-05
12 *1453:B *193:14 4.58194e-05
13 *1456:A *193:14 1.0946e-05
14 *1466:A *193:28 0.000175281
15 *1486:A *193:22 4.26927e-05
16 *1500:D *193:14 0.000759489
17 *1523:D *193:14 0.000484544
18 *42:24 *193:14 0.000549748
19 *49:10 *193:28 0.000173751
20 *49:12 *1538:A 5.33005e-05
21 *60:20 *193:14 0
22 *71:8 *193:22 0.000378138
23 *88:14 *193:14 0.000900502
24 *97:71 *193:22 0.000141668
25 *103:61 *193:14 0.000594953
26 *105:49 *193:14 3.29297e-05
27 *105:66 *193:14 0.000244973
28 *148:20 *193:14 0.000170419
29 *160:8 *193:22 0.0022676
30 *165:45 *193:20 5.20359e-06
31 *165:45 *193:22 3.24988e-05
32 *165:51 *193:20 2.51343e-06
33 *168:24 *193:22 0.000861049
34 *169:26 *193:14 0.000111243
35 *181:151 *193:22 0.00206022
36 *183:51 *193:14 2.23698e-05
*RES
1 *1453:Y *193:14 47.5143 
2 *193:14 *193:20 5.875 
3 *193:20 *193:22 65.8393 
4 *193:22 *193:28 11.25 
5 *193:28 *237:DIODE 9.3 
6 *193:28 *1538:A 14.6929 
*END

*D_NET *194 0.0204578
*CONN
*I *1539:A I *D sky130_fd_sc_hd__buf_1
*I *1454:Y O *D sky130_fd_sc_hd__a21oi_1
*CAP
1 *1539:A 0.00202255
2 *1454:Y 0.000644982
3 *194:24 0.00412638
4 *194:20 0.00335264
5 *194:12 0.0018938
6 *1539:A *1347:A_N 5.74499e-06
7 *194:12 *196:14 8.74134e-05
8 *194:20 *199:62 0.000101137
9 *194:20 *208:22 7.58841e-05
10 *194:24 *225:29 9.46047e-05
11 *1335:A *194:20 0.000103397
12 *1362:A *194:12 2.28776e-05
13 *1387:A *194:12 0.000244121
14 *1417:A *194:12 0.000482108
15 *1429:B *194:24 0.000640069
16 *1430:A *194:20 7.58841e-05
17 *1454:B1 *194:12 6.20519e-05
18 *1470:A *1539:A 4.35597e-05
19 *47:47 *194:12 0.000144732
20 *57:10 *1539:A 0.0012223
21 *57:10 *194:24 6.21161e-05
22 *76:20 *1539:A 5.49489e-05
23 *90:22 *194:20 0.000183477
24 *94:10 *194:12 0.00064609
25 *97:59 *194:24 8.48826e-05
26 *111:10 *194:20 0.00101211
27 *130:10 *194:12 0
28 *179:24 *194:24 0.00135317
29 *179:52 *1539:A 0.00161479
*RES
1 *1454:Y *194:12 34.7643 
2 *194:12 *194:20 25.7679 
3 *194:20 *194:24 27.25 
4 *194:24 *1539:A 45.0679 
*END

*D_NET *195 0.0276871
*CONN
*I *1527:A I *D sky130_fd_sc_hd__buf_1
*I *1540:A I *D sky130_fd_sc_hd__buf_1
*I *1452:X O *D sky130_fd_sc_hd__a2111o_2
*CAP
1 *1527:A 0.00889477
2 *1540:A 0.00130002
3 *1452:X 0
4 *195:6 0.0101948
5 *1527:A *1341:A2 8.23371e-05
6 *1527:A *205:10 0.000426482
7 *1331:A *1540:A 0.000313215
8 *1331:B *1527:A 2.01997e-05
9 *1374:B *1527:A 0.00016251
10 *1378:A *1540:A 2.89016e-05
11 *1425:B *1540:A 0.0016199
12 *1440:B1 *1540:A 0.00098922
13 *1440:B2 *1540:A 0.000221634
14 *1443:B *1527:A 5.00194e-05
15 *1452:D1 *1527:A 0.000118161
16 *1452:D1 *1540:A 9.71259e-06
17 *1509:CLK *1527:A 0.000122494
18 *1509:D *1527:A 0.00025655
19 *1511:CLK *1527:A 0.000103646
20 *51:8 *1527:A 0.000121492
21 *51:8 *1540:A 0
22 *55:8 *1527:A 0.0002845
23 *95:98 *1527:A 4.15526e-05
24 *95:98 *1540:A 0.000197496
25 *95:109 *1527:A 0.000392291
26 *118:20 *1527:A 0.000225548
27 *120:18 *1527:A 0.000215408
28 *129:10 *1527:A 0.000282023
29 *139:26 *1527:A 0.000367692
30 *146:20 *1527:A 0
31 *149:54 *1527:A 0.000308621
32 *180:44 *1527:A 0.000146877
33 *192:6 *1527:A 0.000188997
*RES
1 *1452:X *195:6 13.8 
2 *195:6 *1540:A 45.1393 
3 *195:6 *1527:A 47.5239 
*END

*D_NET *196 0.0243905
*CONN
*I *1541:A I *D sky130_fd_sc_hd__buf_1
*I *1456:X O *D sky130_fd_sc_hd__buf_1
*CAP
1 *1541:A 0
2 *1456:X 0.00116224
3 *196:34 0.00822807
4 *196:14 0.00939031
5 *196:14 *1393:B 0.000818339
6 *196:14 *218:24 0.000567906
7 *196:34 *218:42 0
8 *1346:D *196:34 0.000151722
9 *1351:B1 *196:34 0.000569355
10 *1393:C *196:14 0.000732149
11 *1417:A *196:14 0.000247803
12 *1454:A1 *196:14 1.90431e-05
13 *1456:A *196:14 4.97967e-05
14 *94:10 *196:14 0.000631824
15 *105:20 *196:34 0
16 *115:34 *196:34 0.000184814
17 *146:20 *196:14 0.000407024
18 *162:26 *196:34 0
19 *166:10 *196:14 0.0011306
20 *168:55 *196:14 1.21258e-05
21 *194:12 *196:14 8.74134e-05
*RES
1 *1456:X *196:14 49.2464 
2 *196:14 *196:34 47.6317 
3 *196:34 *1541:A 13.8 
*END

*D_NET *197 0.00821687
*CONN
*I *1542:A I *D sky130_fd_sc_hd__buf_1
*I *1458:X O *D sky130_fd_sc_hd__clkbuf_1
*CAP
1 *1542:A 0.000305928
2 *1458:X 0
3 *197:8 0.00277755
4 *197:4 0.00247162
5 seg[5] *1542:A 5.16464e-05
6 *1464:A *197:8 0.00261013
*RES
1 *1458:X *197:4 9.3 
2 *197:4 *197:8 49.3929 
3 *197:8 *1542:A 19.3893 
*END

*D_NET *198 0.0213488
*CONN
*I *228:DIODE I *D sky130_fd_sc_hd__diode_2
*I *1543:A I *D sky130_fd_sc_hd__buf_1
*I *1459:Y O *D sky130_fd_sc_hd__a21boi_2
*CAP
1 *228:DIODE 0
2 *1543:A 0.000304016
3 *1459:Y 0.00295147
4 *198:26 0.000647446
5 *198:18 0.00232825
6 *198:16 0.00493629
7 *198:16 *1357:A 4.43256e-05
8 *198:16 *1364:B1 0.000326716
9 *198:16 *199:27 0
10 *198:16 *205:50 5.52238e-05
11 *198:16 *219:14 0.0021723
12 *198:18 *208:88 0.00309545
13 *1380:C1 *198:18 0.0012648
14 *1415:A *198:16 0.000818987
15 *1443:C *198:18 1.04904e-05
16 *1455:B *198:16 9.0145e-05
17 *1464:A *198:18 0.000218066
18 *1466:A *198:18 0.000192307
19 *1505:RESET_B *198:18 0.000189481
20 *22:20 *198:16 6.56563e-05
21 *53:10 *198:18 0.000556844
22 *74:16 *198:18 0.00019379
23 *84:49 *198:16 0.000219711
24 *108:18 *198:16 0.000208065
25 *109:44 *198:18 0
26 *179:54 *198:18 0.000292286
27 *186:8 *198:16 1.02936e-05
28 *192:14 *198:18 0.000156386
*RES
1 *1459:Y *198:16 33.2232 
2 *198:16 *198:18 62.1786 
3 *198:18 *198:26 8.38393 
4 *198:26 *1543:A 14.5679 
5 *198:26 *228:DIODE 9.3 
*END

*D_NET *199 0.0360749
*CONN
*I *1364:A3 I *D sky130_fd_sc_hd__a31o_1
*I *1356:B I *D sky130_fd_sc_hd__nand2_1
*I *1361:A2 I *D sky130_fd_sc_hd__a21o_1
*I *1355:A I *D sky130_fd_sc_hd__nor2_1
*I *1342:D I *D sky130_fd_sc_hd__and4_4
*I *1360:C I *D sky130_fd_sc_hd__nand3_1
*I *1357:B I *D sky130_fd_sc_hd__or2_1
*I *1495:Q O *D sky130_fd_sc_hd__dfrtp_4
*CAP
1 *1364:A3 0.000658628
2 *1356:B 0
3 *1361:A2 0
4 *1355:A 9.43248e-05
5 *1342:D 0.00096261
6 *1360:C 3.59269e-05
7 *1357:B 4.45611e-05
8 *1495:Q 0.000446861
9 *199:107 0.00209674
10 *199:62 0.00247322
11 *199:56 0.00281762
12 *199:46 0.00179741
13 *199:42 0.0019588
14 *199:27 0.000344598
15 *199:12 0.000675483
16 *1357:B *205:50 0.000316134
17 *1360:C *1360:B 1.73088e-05
18 *1360:C *210:91 5.99973e-05
19 *1360:C *218:82 1.83053e-05
20 *1364:A3 *1364:A2 0.00225971
21 *1364:A3 *1364:B1 0.00186226
22 *199:12 *1386:A 0.000716556
23 *199:12 *1400:B 0.00077554
24 *199:12 *204:24 1.94945e-05
25 *199:12 *205:50 0.000339388
26 *199:12 *207:26 8.59127e-05
27 *199:27 *210:91 9.71197e-05
28 *199:27 *218:82 8.43535e-06
29 *199:46 *210:62 0.000302736
30 *199:46 *211:27 1.21289e-05
31 *199:46 *218:70 0.000685208
32 *199:46 *226:33 0.000854165
33 *199:56 *210:56 7.07669e-05
34 *199:62 *1361:B1 0.000422929
35 *199:62 *210:33 6.86019e-05
36 *199:62 *210:56 1.10868e-05
37 *199:62 *218:30 0.000264456
38 *199:107 *1364:A2 4.6141e-05
39 *199:107 *1386:A 0.000116395
40 *199:107 *1435:A 0.000130737
41 *199:107 *204:24 0.000117919
42 *199:107 *218:82 0.000301438
43 *199:107 *226:33 0.000431186
44 *1332:B *199:56 9.8126e-05
45 *1335:A *199:56 0.000361487
46 *1407:A *1342:D 0.000576723
47 *1424:A *199:27 2.84109e-05
48 *1424:A *199:42 0.000121027
49 *1424:A *199:107 0.000470798
50 *1427:B *199:107 8.25843e-06
51 *1435:B *199:107 6.17358e-05
52 *1495:RESET_B *199:12 7.40975e-05
53 *1498:CLK *199:107 2.77258e-05
54 *1503:CLK *199:107 9.83442e-05
55 *1522:CLK *199:56 5.49544e-05
56 *1530:A *199:56 0.000274239
57 *25:18 *1342:D 0.000107777
58 *39:22 *199:56 0.000317223
59 *70:18 *199:46 0.000510824
60 *84:12 *1364:A3 0.000192855
61 *84:49 *199:46 0.00044154
62 *90:22 *199:56 1.51489e-05
63 *90:22 *199:62 0.000151807
64 *95:12 *1342:D 0
65 *97:71 *199:62 0.000326101
66 *103:61 *199:56 0.000114503
67 *107:20 *1364:A3 2.12005e-05
68 *107:20 *199:107 5.49544e-05
69 *108:18 *199:27 0
70 *108:18 *199:42 0
71 *111:10 *199:62 0.00101364
72 *133:10 *1364:A3 0.000191938
73 *153:10 *199:56 5.39286e-05
74 *170:14 *199:56 0.000462966
75 *170:18 *199:56 0.00175933
76 *175:12 *1342:D 0.00094729
77 *175:12 *1355:A 0.000199782
78 *180:125 *199:12 7.17727e-06
79 *183:81 *199:56 0.000125724
80 *183:83 *199:56 0.000715653
81 *186:8 *1357:B 0.000186765
82 *186:89 *1357:B 0.000129369
83 *186:89 *199:12 0.000140088
84 *186:89 *199:27 9.85424e-06
85 *186:91 *199:27 4.12028e-05
86 *187:22 *199:56 0.000263176
87 *187:34 *199:56 0.000369846
88 *190:28 *1342:D 2.73453e-05
89 *194:20 *199:62 0.000101137
90 *198:16 *199:27 0
*RES
1 *1495:Q *199:12 33.3714 
2 *199:12 *1357:B 12.3 
3 *199:12 *199:27 12.5 
4 *199:27 *1360:C 10.2643 
5 *199:27 *199:42 11.25 
6 *199:42 *199:46 19.8214 
7 *199:46 *199:56 43.8214 
8 *199:56 *199:62 34.2143 
9 *199:62 *1342:D 37.1036 
10 *199:62 *1355:A 16.3536 
11 *199:56 *1361:A2 9.3 
12 *199:42 *199:107 32.5536 
13 *199:107 *1356:B 9.3 
14 *199:107 *1364:A3 44.1036 
*END

*D_NET *200 0.0330885
*CONN
*I *1392:A1 I *D sky130_fd_sc_hd__a21oi_1
*I *1393:B I *D sky130_fd_sc_hd__and3_2
*I *1388:A I *D sky130_fd_sc_hd__or2_1
*I *1389:A I *D sky130_fd_sc_hd__nand2_1
*I *1409:B I *D sky130_fd_sc_hd__and4_1
*I *1346:B I *D sky130_fd_sc_hd__or4_1
*I *1505:Q O *D sky130_fd_sc_hd__dfrtp_4
*CAP
1 *1392:A1 0
2 *1393:B 0.000935823
3 *1388:A 0
4 *1389:A 0.000239737
5 *1409:B 0.000184998
6 *1346:B 0
7 *1505:Q 0.00133664
8 *200:97 0.00123528
9 *200:65 0.000447836
10 *200:63 0.00114016
11 *200:50 0.00129659
12 *200:44 0.00212436
13 *200:30 0.0036719
14 *200:10 0.00336317
15 *1389:A *220:12 0
16 *1409:B *216:70 0.000167669
17 *200:30 *1347:A_N 0.000204864
18 *200:30 *1347:B 0.000115552
19 *200:30 *201:62 9.58181e-05
20 *200:30 *209:39 2.1479e-05
21 *200:30 *209:72 1.14338e-05
22 *200:50 *201:62 1.63801e-05
23 *200:63 *1346:C 0.000313138
24 *200:63 *1449:A2 0.000161474
25 *200:63 *201:62 1.76819e-05
26 *200:63 *216:70 8.41499e-05
27 *200:65 *216:70 3.09985e-05
28 *200:97 *220:12 4.75566e-05
29 *1331:B *200:30 9.00813e-05
30 *1346:D *200:63 0.000486165
31 *1349:A3 *200:44 0.00125998
32 *1349:A3 *200:50 0.000389728
33 *1362:A *1389:A 0
34 *1362:B *200:63 0.000292339
35 *1377:A *200:10 0.000520747
36 *1377:B *200:10 0.000604179
37 *1377:C *200:10 5.7993e-06
38 *1382:B *200:44 0.000135454
39 *1387:A *1393:B 0.0011502
40 *1387:A *200:97 0.000386362
41 *1389:B *1389:A 0
42 *1389:B *1409:B 8.12904e-05
43 *1389:B *200:97 0
44 *1393:C *1393:B 0.000157156
45 *1401:B *200:44 0.000827017
46 *1401:C *200:44 0.000292715
47 *1475:A *200:50 3.97677e-05
48 *1499:RESET_B *1409:B 1.88425e-05
49 *1499:RESET_B *200:63 0.00198129
50 *1499:RESET_B *200:65 9.71197e-05
51 *32:8 *1393:B 0.000261922
52 *47:47 *1393:B 0.000135573
53 *52:24 *200:63 0.000101229
54 *66:14 *200:10 0.000146991
55 *76:20 *200:10 0.000835343
56 *91:16 *200:50 7.58841e-05
57 *100:14 *200:44 0.0009656
58 *102:16 *200:44 9.14454e-05
59 *123:8 *200:10 0.00046521
60 *124:30 *200:30 2.64379e-06
61 *129:24 *1393:B 8.51942e-05
62 *129:24 *200:97 4.46186e-06
63 *129:30 *200:97 0
64 *133:8 *200:30 6.70818e-05
65 *133:10 *200:10 0
66 *133:10 *200:30 0
67 *134:73 *1393:B 0.000229365
68 *139:26 *200:44 0.000467905
69 *143:8 *1389:A 9.67754e-05
70 *145:12 *200:30 0.000519022
71 *146:20 *1393:B 0.000241348
72 *165:16 *200:10 0.00102493
73 *174:40 *200:63 0.000151782
74 *178:18 *1409:B 0.000154486
75 *183:18 *1393:B 6.50073e-05
76 *196:14 *1393:B 0.000818339
*RES
1 *1505:Q *200:10 48.6125 
2 *200:10 *200:30 30.7088 
3 *200:30 *200:44 49.3393 
4 *200:44 *200:50 11 
5 *200:50 *1346:B 9.3 
6 *200:50 *200:63 26.875 
7 *200:63 *200:65 0.946429 
8 *200:65 *1409:B 23.675 
9 *200:65 *1389:A 22.1036 
10 *200:63 *200:97 11.3036 
11 *200:97 *1388:A 13.8 
12 *200:97 *1393:B 36.9071 
13 *200:30 *1392:A1 9.3 
*END

*D_NET *201 0.0251202
*CONN
*I *1393:A I *D sky130_fd_sc_hd__and3_2
*I *1392:B1 I *D sky130_fd_sc_hd__a21oi_1
*I *1346:A I *D sky130_fd_sc_hd__or4_1
*I *1409:A I *D sky130_fd_sc_hd__and4_1
*I *1506:Q O *D sky130_fd_sc_hd__dfrtp_2
*CAP
1 *1393:A 4.01022e-05
2 *1392:B1 0
3 *1346:A 0
4 *1409:A 5.75742e-05
5 *1506:Q 0.000762363
6 *201:62 0.00110065
7 *201:45 0.00336935
8 *201:16 0.00292168
9 *201:14 0.00139787
10 *1409:A *218:42 5.33005e-05
11 *201:14 *1381:A 0.000202898
12 *201:45 *217:26 0
13 *201:45 *218:42 1.98839e-05
14 *201:62 *1382:A 0.000439692
15 *201:62 *1431:A 0.000568785
16 *201:62 *224:65 4.22609e-05
17 *1349:A3 *201:62 1.47872e-05
18 *1374:B *201:62 0
19 *1382:B *201:62 5.33005e-05
20 *1392:A2 *201:62 5.33005e-05
21 *1393:C *1393:A 4.21248e-05
22 *1475:A *201:62 0.000194842
23 *1494:A *201:62 0.000427371
24 *1503:D *201:14 0.000157218
25 *1519:D *1409:A 5.59013e-05
26 *25:18 *201:14 0.000146512
27 *25:18 *201:16 0.000149257
28 *36:12 *201:45 0.00165422
29 *41:18 *201:16 0.000141485
30 *45:14 *201:14 0.000920049
31 *45:14 *201:16 0.00127984
32 *51:8 *201:62 0
33 *52:24 *201:62 0.00283927
34 *61:14 *201:45 0.000114102
35 *68:16 *201:45 5.71472e-05
36 *91:16 *201:62 0.000397901
37 *100:14 *201:62 0.000756476
38 *108:18 *201:14 0.00014399
39 *109:18 *201:14 9.96553e-05
40 *114:18 *201:14 1.01403e-05
41 *116:10 *201:62 2.29797e-05
42 *128:22 *201:45 0.000812472
43 *129:10 *201:62 1.76135e-05
44 *133:8 *201:62 4.85049e-06
45 *134:12 *201:14 0.000880001
46 *134:73 *1393:A 2.99316e-05
47 *144:26 *1409:A 8.07951e-05
48 *144:26 *201:16 0.000117903
49 *178:14 *201:14 0.000977563
50 *178:14 *201:16 0.000653968
51 *178:18 *1409:A 1.17968e-05
52 *178:18 *201:16 0.000540352
53 *180:25 *201:62 0.000154809
54 *183:20 *201:16 0
55 *200:30 *201:62 9.58181e-05
56 *200:50 *201:62 1.63801e-05
57 *200:63 *201:62 1.76819e-05
*RES
1 *1506:Q *201:14 39.7286 
2 *201:14 *201:16 21.6786 
3 *201:16 *1409:A 15.3714 
4 *201:16 *201:45 47.9821 
5 *201:45 *1346:A 9.3 
6 *201:45 *201:62 48.2679 
7 *201:62 *1392:B1 9.3 
8 *201:14 *1393:A 14.7643 
*END

*D_NET *202 0.0255708
*CONN
*I *1399:A1 I *D sky130_fd_sc_hd__a21o_1
*I *1395:A I *D sky130_fd_sc_hd__or2_1
*I *1400:A I *D sky130_fd_sc_hd__nand3_2
*I *1396:A I *D sky130_fd_sc_hd__nand2_1
*I *1345:C I *D sky130_fd_sc_hd__and4_1
*I *1507:Q O *D sky130_fd_sc_hd__dfrtp_4
*CAP
1 *1399:A1 0.000202085
2 *1395:A 0.00051398
3 *1400:A 0.0018289
4 *1396:A 9.57472e-05
5 *1345:C 4.19259e-05
6 *1507:Q 1.67089e-05
7 *202:57 0.00169093
8 *202:16 0.000793631
9 *202:10 0.00294716
10 *202:6 0.00145388
11 *1345:C *209:14 0.000178986
12 *1395:A *214:34 3.69697e-05
13 *1396:A *209:14 0.000333704
14 *1399:A1 *209:39 0.000634259
15 *1399:A1 *222:18 1.98839e-05
16 *202:10 *1442:A 0.000534892
17 *202:10 *210:56 0.000373632
18 *202:16 *204:66 0.00298595
19 *202:16 *205:54 0.00294508
20 *202:57 *208:41 0.000709046
21 *1330:A *1400:A 5.54272e-05
22 *1365:C *1400:A 0.000121405
23 *1395:B *1395:A 0.000269298
24 *1399:A2 *1395:A 0.000378266
25 *1399:A2 *1399:A1 0.000552531
26 *1399:A2 *202:57 3.34366e-05
27 *1429:B *1395:A 9.35419e-05
28 *1441:A1 *202:6 5.33005e-05
29 *1441:A1 *202:57 0.000180777
30 *1506:D *202:57 7.99211e-05
31 *1507:RESET_B *202:57 1.844e-05
32 *1514:D *1395:A 4.46186e-06
33 *1514:D *202:57 0.00113506
34 *1514:RESET_B *1399:A1 1.98839e-05
35 *1521:D *1395:A 0.000180872
36 *1521:D *202:57 6.07328e-05
37 *33:16 *1400:A 3.82501e-05
38 *33:16 *202:10 0.0002139
39 *38:12 *1395:A 0.000180059
40 *47:28 *1395:A 9.38483e-05
41 *57:10 *1395:A 5.50052e-05
42 *68:16 *202:57 0
43 *134:37 *1400:A 3.34366e-05
44 *134:47 *1400:A 0.00217366
45 *136:8 *1345:C 0.000177319
46 *136:8 *1396:A 0.000290871
47 *153:10 *1400:A 0.000166256
48 *153:10 *202:10 0.000189584
49 *180:70 *202:6 2.89114e-05
50 *180:70 *202:57 0.000233978
51 *190:58 *202:57 5.54183e-05
52 *190:109 *202:57 6.55404e-05
*RES
1 *1507:Q *202:6 9.83571 
2 *202:6 *202:10 17.375 
3 *202:10 *202:16 38.6964 
4 *202:16 *1345:C 16.05 
5 *202:16 *1396:A 18.175 
6 *202:10 *1400:A 42.9071 
7 *202:6 *202:57 29.3571 
8 *202:57 *1395:A 27.8357 
9 *202:57 *1399:A1 20.5143 
*END

*D_NET *203 0.0307658
*CONN
*I *1347:B I *D sky130_fd_sc_hd__and4b_1
*I *1400:B I *D sky130_fd_sc_hd__nand3_2
*I *1345:D I *D sky130_fd_sc_hd__and4_1
*I *1399:B1 I *D sky130_fd_sc_hd__a21o_1
*I *1508:Q O *D sky130_fd_sc_hd__dfrtp_2
*CAP
1 *1347:B 0.000971723
2 *1400:B 0.00137004
3 *1345:D 0.000170991
4 *1399:B1 3.92391e-05
5 *1508:Q 0
6 *203:45 0.00286662
7 *203:33 0.00406567
8 *203:31 0.00120863
9 *203:12 0.0018598
10 *203:4 0.00158365
11 *1345:D *1345:A 0.000101233
12 *1345:D *1345:B 5.49544e-05
13 *1347:B *1347:A_N 0.000511707
14 *1347:B *1347:C 0
15 *1399:B1 *209:39 4.27338e-05
16 *1399:B1 *222:18 0.000136951
17 *1400:B *1333:A1_N 7.72758e-05
18 *1400:B *204:24 0.000101159
19 *203:12 *205:10 0.000265122
20 *203:12 *222:18 0.00206367
21 *203:31 *1427:A 0.000168722
22 *203:31 *206:24 9.60875e-05
23 *203:31 *211:10 0.00046654
24 *203:31 *217:10 0.000212801
25 *203:45 *1333:A1_N 0.00108322
26 *203:45 *204:66 0.000150323
27 *1427:B *203:31 0.000146618
28 *1440:A2 *1347:B 0
29 *1446:B *203:31 0.000300441
30 *1452:D1 *203:12 0.000266836
31 *1455:B *1400:B 6.12434e-05
32 *1459:A1 *1400:B 0.000178847
33 *1495:RESET_B *1400:B 0.000585338
34 *1507:D *203:31 0.000744172
35 *1512:D *203:45 0.00115878
36 *1513:RESET_B *203:31 0.000273756
37 *1515:RESET_B *203:31 0.000362345
38 *23:12 *203:31 1.0945e-05
39 *43:16 *1347:B 0.00068482
40 *48:20 *203:31 0.000107128
41 *57:10 *1347:B 4.64895e-05
42 *62:10 *203:45 3.92757e-05
43 *70:18 *203:31 0.000423483
44 *84:49 *1400:B 5.74499e-06
45 *85:10 *203:31 0.000163059
46 *85:22 *203:31 0.00030578
47 *87:24 *203:31 0.000112723
48 *88:62 *203:31 0.000169605
49 *98:12 *1345:D 5.42152e-05
50 *109:38 *203:31 0.000368591
51 *138:8 *1399:B1 5.52302e-05
52 *138:8 *203:12 0.00167858
53 *145:12 *1347:B 0.000211054
54 *155:18 *203:12 0.000183513
55 *164:12 *1345:D 2.81946e-05
56 *165:26 *1347:B 0.000146208
57 *180:125 *1400:B 4.68855e-05
58 *181:151 *1347:B 0.000231645
59 *184:38 *203:45 3.69697e-05
60 *186:8 *1400:B 0.00056681
61 *186:89 *1400:B 0.000272745
62 *188:65 *203:31 0.000177815
63 *199:12 *1400:B 0.00077554
64 *200:30 *1347:B 0.000115552
*RES
1 *1508:Q *203:4 9.3 
2 *203:4 *203:12 32.7143 
3 *203:12 *1399:B1 10.6571 
4 *203:12 *203:31 49.7857 
5 *203:31 *203:33 4.5 
6 *203:33 *203:45 49.6964 
7 *203:45 *1345:D 17.3179 
8 *203:33 *1400:B 42.0321 
9 *203:4 *1347:B 36.1929 
*END

*D_NET *204 0.0262951
*CONN
*I *1345:B I *D sky130_fd_sc_hd__and4_1
*I *1347:C I *D sky130_fd_sc_hd__and4b_1
*I *1403:A I *D sky130_fd_sc_hd__inv_2
*I *1509:Q O *D sky130_fd_sc_hd__dfrtp_2
*CAP
1 *1345:B 4.1209e-05
2 *1347:C 0.00122262
3 *1403:A 0
4 *1509:Q 0.000510401
5 *204:66 0.00103065
6 *204:41 0.00207664
7 *204:24 0.00206456
8 *204:10 0.00271038
9 *204:10 *206:14 0.000156304
10 *204:10 *206:16 0.000882569
11 *204:10 *207:36 0
12 *204:24 *1386:A 0.000150474
13 *204:24 *206:16 0.000175297
14 *204:24 *210:91 0.000104976
15 *204:24 *211:61 0.000139907
16 *204:24 *212:40 4.70048e-05
17 *204:24 *225:35 0.000289816
18 *204:41 *208:61 0.000592363
19 *204:41 *211:61 5.71472e-05
20 *204:41 *212:40 0.000102345
21 *204:41 *216:18 3.97677e-05
22 *204:66 *1345:A 0.000148449
23 *204:66 *205:54 0.000536413
24 *1344:B *1347:C 0.00103463
25 *1345:D *1345:B 5.49544e-05
26 *1347:B *1347:C 0
27 *1386:D *1347:C 0.000873743
28 *1400:B *204:24 0.000101159
29 *1415:A *204:24 0.00125696
30 *1440:A2 *1347:C 3.96104e-05
31 *1463:A *204:41 2.59355e-05
32 *1509:CLK *204:10 1.58163e-05
33 *1510:RESET_B *1347:C 0.000196732
34 *1512:D *204:66 0.000894045
35 *37:20 *1347:C 0.000848521
36 *48:20 *204:24 0.000346025
37 *76:36 *1347:C 0
38 *120:62 *204:41 0.00064757
39 *136:8 *204:66 0.000150103
40 *141:43 *204:41 0.000383166
41 *142:34 *204:41 0.000146474
42 *147:84 *204:10 0.000445429
43 *147:84 *204:24 8.33586e-05
44 *165:16 *1347:C 0
45 *179:110 *204:41 4.66203e-05
46 *179:131 *204:41 5.66157e-05
47 *180:125 *204:24 0.0004968
48 *187:22 *204:66 0.00179785
49 *199:12 *204:24 1.94945e-05
50 *199:107 *204:24 0.000117919
51 *202:16 *204:66 0.00298595
52 *203:45 *204:66 0.000150323
*RES
1 *1509:Q *204:10 28.1214 
2 *204:10 *204:24 27.1349 
3 *204:24 *1403:A 9.3 
4 *204:24 *204:41 30.0714 
5 *204:41 *1347:C 45.7107 
6 *204:10 *204:66 49.6786 
7 *204:66 *1345:B 14.3357 
*END

*D_NET *205 0.0259744
*CONN
*I *1345:A I *D sky130_fd_sc_hd__and4_1
*I *1408:A I *D sky130_fd_sc_hd__inv_2
*I *1347:D I *D sky130_fd_sc_hd__and4b_1
*I *1510:Q O *D sky130_fd_sc_hd__dfrtp_2
*CAP
1 *1345:A 0.000121945
2 *1408:A 0.000284554
3 *1347:D 0.000373966
4 *1510:Q 3.92359e-05
5 *205:54 0.00328148
6 *205:50 0.004641
7 *205:10 0.00197048
8 *205:8 0.00283266
9 *205:10 *1343:A 0.0001686
10 *205:10 *1435:A 6.05445e-05
11 *205:50 *1357:A 5.52302e-05
12 *205:50 *207:79 0.000304394
13 *1345:D *1345:A 0.000101233
14 *1357:B *205:50 0.000316134
15 *1452:D1 *1347:D 0.000115815
16 *1452:D1 *205:10 0.000418394
17 *1455:B *205:54 6.96806e-05
18 *1510:D *205:8 5.52238e-05
19 *1510:D *205:50 0.00018045
20 *1510:RESET_B *205:50 0.000178527
21 *1511:RESET_B *205:50 9.15842e-06
22 *1512:CLK *205:54 9.35419e-05
23 *1512:D *205:54 5.74499e-06
24 *1512:RESET_B *205:50 0
25 *1527:A *205:10 0.000426482
26 *22:20 *205:50 0.000256746
27 *50:22 *205:10 0.000145753
28 *51:8 *205:10 0.000217117
29 *57:10 *1347:D 0.000187322
30 *95:98 *1347:D 0.00010266
31 *95:109 *1347:D 1.12578e-05
32 *95:109 *205:10 0.00109999
33 *95:109 *205:50 1.93629e-05
34 *97:10 *1408:A 0.000929716
35 *108:18 *205:50 1.98839e-05
36 *132:14 *1347:D 0.000219289
37 *136:8 *1345:A 4.51883e-05
38 *141:43 *205:10 0.000557982
39 *141:43 *205:50 7.63002e-05
40 *145:12 *1408:A 0.000451455
41 *147:74 *205:50 0
42 *148:14 *205:10 9.59532e-06
43 *164:12 *1345:A 0
44 *168:36 *1408:A 1.21258e-05
45 *177:14 *205:54 1.04066e-05
46 *180:44 *205:10 0.000771583
47 *186:8 *205:50 4.03934e-05
48 *186:117 *205:50 0.000396149
49 *198:16 *205:50 5.52238e-05
50 *199:12 *205:50 0.000339388
51 *202:16 *205:54 0.00294508
52 *203:12 *205:10 0.000265122
53 *204:66 *1345:A 0.000148449
54 *204:66 *205:54 0.000536413
*RES
1 *1510:Q *205:8 14.3357 
2 *205:8 *205:10 38.0714 
3 *205:10 *1347:D 21.6348 
4 *205:10 *1408:A 22.9607 
5 *205:8 *205:50 39.1964 
6 *205:50 *205:54 47.3393 
7 *205:54 *1345:A 16.9607 
*END

*D_NET *206 0.0322802
*CONN
*I *1419:A2 I *D sky130_fd_sc_hd__a31o_1
*I *1421:A3 I *D sky130_fd_sc_hd__a41o_1
*I *1422:D I *D sky130_fd_sc_hd__and4_2
*I *1412:A I *D sky130_fd_sc_hd__or2_1
*I *1413:A I *D sky130_fd_sc_hd__nand2_2
*I *1348:B I *D sky130_fd_sc_hd__and4b_1
*I *1511:Q O *D sky130_fd_sc_hd__dfrtp_4
*CAP
1 *1419:A2 7.90482e-05
2 *1421:A3 0.000367176
3 *1422:D 8.01325e-05
4 *1412:A 0
5 *1413:A 0
6 *1348:B 0.000157367
7 *1511:Q 0.000226848
8 *206:69 0.000743275
9 *206:58 0.000380309
10 *206:49 0.00111875
11 *206:30 0.0019511
12 *206:24 0.0023508
13 *206:16 0.00223818
14 *206:14 0.000952595
15 *1348:B *1348:D 0.000132867
16 *1348:B *207:126 0.00110866
17 *1419:A2 *207:26 2.28499e-05
18 *1421:A3 *1421:A2 3.97677e-05
19 *1421:A3 *1421:B1 0.00112211
20 *1421:A3 *207:100 3.97677e-05
21 *1422:D *1422:C 3.69697e-05
22 *1422:D *207:81 1.08359e-05
23 *206:16 *1333:A1_N 0.000159157
24 *206:16 *226:27 1.62539e-05
25 *206:24 *226:16 0.000751563
26 *206:24 *226:27 0.000112798
27 *206:30 *1336:A1 0.00169227
28 *206:49 *210:91 0.000608201
29 *206:49 *219:14 0.000309703
30 *206:58 *218:96 0.000263524
31 *206:69 *218:96 0.00106608
32 *1348:C *1348:B 0.000516742
33 *1421:A4 *1421:A3 0.00112404
34 *1455:B *206:16 6.705e-05
35 *1468:A *206:14 0.000144773
36 *1475:A *206:30 0.000336466
37 *1509:CLK *206:14 7.02611e-05
38 *1511:CLK *206:14 1.5424e-05
39 *1513:RESET_B *206:24 9.41642e-05
40 *1516:RESET_B *206:14 4.46186e-06
41 *1516:RESET_B *206:16 0.000487181
42 *1516:RESET_B *206:24 0.00017548
43 *47:26 *206:16 6.69218e-05
44 *47:95 *1422:D 0.000148189
45 *47:95 *206:69 0.000223592
46 *54:12 *206:14 0.000304781
47 *61:14 *206:30 0.00045007
48 *84:12 *1422:D 5.83304e-05
49 *84:12 *206:69 0.000215049
50 *87:24 *206:30 2.28543e-05
51 *93:14 *206:49 2.06112e-05
52 *97:59 *206:30 0.000109931
53 *101:14 *206:30 8.75109e-05
54 *107:20 *206:58 4.43256e-05
55 *147:66 *206:69 0.000984349
56 *147:68 *206:58 0.000181796
57 *147:68 *206:69 8.17274e-05
58 *147:76 *1419:A2 0.000137983
59 *147:84 *206:16 6.057e-07
60 *148:14 *206:49 0.00227249
61 *149:14 *206:58 1.05731e-05
62 *153:8 *1419:A2 0.000139907
63 *158:8 *206:24 0.000525378
64 *158:8 *206:30 0.00207615
65 *181:58 *206:30 0.00111563
66 *186:47 *206:14 4.37485e-06
67 *188:21 *206:49 2.06112e-05
68 *189:95 *206:16 0.000294678
69 *189:95 *206:24 0.000196562
70 *203:31 *206:24 9.60875e-05
71 *204:10 *206:14 0.000156304
72 *204:10 *206:16 0.000882569
73 *204:24 *206:16 0.000175297
*RES
1 *1511:Q *206:14 20.0143 
2 *206:14 *206:16 18.7946 
3 *206:16 *206:24 24.7946 
4 *206:24 *206:30 48.0536 
5 *206:30 *1348:B 24.1929 
6 *206:16 *206:49 15.3192 
7 *206:49 *1413:A 9.3 
8 *206:49 *206:58 3.01786 
9 *206:58 *1412:A 9.3 
10 *206:58 *206:69 17.75 
11 *206:69 *1422:D 15.7464 
12 *206:69 *1421:A3 27.0679 
13 *206:14 *1419:A2 15.9964 
*END

*D_NET *207 0.0427819
*CONN
*I *1421:A2 I *D sky130_fd_sc_hd__a41o_1
*I *1418:B I *D sky130_fd_sc_hd__nand2_1
*I *1348:A_N I *D sky130_fd_sc_hd__and4b_1
*I *235:DIODE I *D sky130_fd_sc_hd__diode_2
*I *1422:C I *D sky130_fd_sc_hd__and4_2
*I *1419:A1 I *D sky130_fd_sc_hd__a31o_1
*I *1416:A I *D sky130_fd_sc_hd__xor2_1
*I *1341:A2 I *D sky130_fd_sc_hd__a21o_1
*I *1512:Q O *D sky130_fd_sc_hd__dfrtp_4
*CAP
1 *1421:A2 0.000450344
2 *1418:B 0.000653744
3 *1348:A_N 0
4 *235:DIODE 8.75738e-05
5 *1422:C 8.77679e-05
6 *1419:A1 0
7 *1416:A 0
8 *1341:A2 0.000829033
9 *1512:Q 0.000278953
10 *207:126 0.00120766
11 *207:122 0.00309689
12 *207:110 0.00263055
13 *207:108 0.00133344
14 *207:100 0.00196672
15 *207:81 0.000330785
16 *207:79 0.00199953
17 *207:36 0.00158995
18 *207:26 0.00196482
19 *207:16 0.00342231
20 *1341:A2 *208:123 0.00150724
21 *1418:B *1418:A 5.90995e-05
22 *1421:A2 *1421:B1 0.00107829
23 *1422:C *1421:B1 2.51343e-06
24 *1422:C *1422:A 8.25843e-06
25 *1422:C *208:61 6.05161e-06
26 *207:16 *1386:A 6.68849e-05
27 *207:16 *211:61 9.15842e-06
28 *207:16 *213:35 5.64029e-05
29 *207:26 *1386:A 0.000324708
30 *207:36 *208:123 0
31 *207:79 *1435:A 2.72695e-05
32 *207:79 *211:61 7.68385e-05
33 *207:79 *226:56 0.000100831
34 *207:100 *1421:B1 5.33005e-05
35 *207:108 *1421:B1 0.000198698
36 *207:108 *221:52 0.00111327
37 *207:122 *220:66 0.000613611
38 *207:122 *224:65 8.95024e-05
39 *1348:B *207:126 0.00110866
40 *1348:C *207:126 0.000431015
41 *1377:C *207:108 5.73777e-06
42 *1406:C *207:122 0.00014778
43 *1411:C1 *207:108 0.000408012
44 *1419:A2 *207:26 2.28499e-05
45 *1421:A3 *1421:A2 3.97677e-05
46 *1421:A3 *207:100 3.97677e-05
47 *1422:D *1422:C 3.69697e-05
48 *1422:D *207:81 1.08359e-05
49 *1423:B *207:126 5.49489e-05
50 *1455:A *207:79 0.000109256
51 *1467:A *207:26 0.000238249
52 *1469:A *207:26 0.000185118
53 *1479:A *207:16 1.2017e-05
54 *1495:RESET_B *207:16 0
55 *1503:RESET_B *207:26 0
56 *1509:CLK *207:36 0.000103802
57 *1509:D *1341:A2 0
58 *1509:RESET_B *1341:A2 9.59269e-05
59 *1509:RESET_B *207:36 0.000704675
60 *1510:CLK *207:79 2.79421e-05
61 *1510:D *207:79 6.05161e-06
62 *1524:RESET_B *207:79 0.000457368
63 *1527:A *1341:A2 8.23371e-05
64 *35:12 *207:108 0.000325292
65 *47:95 *207:108 0.000652119
66 *47:108 *207:108 0.000892776
67 *47:110 *207:108 0.000237285
68 *76:50 *207:26 0
69 *76:50 *207:79 0.000155852
70 *77:12 *207:16 0.000176475
71 *84:12 *207:81 0.000176226
72 *84:14 *207:100 5.52302e-05
73 *94:8 *1341:A2 0.00056298
74 *95:83 *207:122 0.000224168
75 *97:18 *207:122 0
76 *107:20 *207:79 0.000723671
77 *115:101 *1418:B 0.000218554
78 *115:101 *207:122 0.000815568
79 *118:20 *1341:A2 0.000794743
80 *119:12 *207:122 0.000111126
81 *122:10 *207:108 0.000131141
82 *133:10 *1422:C 7.85137e-05
83 *133:10 *207:81 0.000186418
84 *139:14 *207:26 0
85 *139:14 *207:79 5.9061e-05
86 *143:24 *207:122 0.000138341
87 *147:16 *207:108 0.00073142
88 *147:18 *207:108 0.000223615
89 *147:66 *207:79 0.000175231
90 *147:76 *207:26 0.000991688
91 *149:14 *207:79 7.63002e-05
92 *151:8 *1341:A2 5.49544e-05
93 *152:10 *1418:B 0.000183095
94 *153:8 *207:26 1.74352e-05
95 *154:8 *1421:A2 0.00053128
96 *155:32 *207:122 0.000327557
97 *163:12 *207:16 0.000348637
98 *179:131 *207:26 0
99 *180:125 *207:16 8.08476e-06
100 *186:117 *207:79 3.14048e-05
101 *187:145 *207:79 0.000150618
102 *191:66 *207:122 0.000173628
103 *199:12 *207:26 8.59127e-05
104 *204:10 *207:36 0
105 *205:50 *207:79 0.000304394
*RES
1 *1512:Q *207:16 29.6482 
2 *207:16 *207:26 29.5446 
3 *207:26 *207:36 20.5357 
4 *207:36 *1341:A2 48.925 
5 *207:36 *1416:A 9.3 
6 *207:26 *1419:A1 9.3 
7 *207:16 *207:79 49.9375 
8 *207:79 *207:81 2.55357 
9 *207:81 *1422:C 15.3714 
10 *207:81 *207:100 7.23214 
11 *207:100 *207:108 49 
12 *207:108 *207:110 4.5 
13 *207:110 *207:122 48.7143 
14 *207:122 *207:126 23.1429 
15 *207:126 *235:DIODE 10.6571 
16 *207:126 *1348:A_N 9.3 
17 *207:110 *1418:B 20.9429 
18 *207:100 *1421:A2 20.9429 
*END

*D_NET *208 0.0462145
*CONN
*I *1341:A1 I *D sky130_fd_sc_hd__a21o_1
*I *1419:B1 I *D sky130_fd_sc_hd__a31o_1
*I *1422:B I *D sky130_fd_sc_hd__and4_2
*I *1418:A I *D sky130_fd_sc_hd__nand2_1
*I *1421:A1 I *D sky130_fd_sc_hd__a41o_1
*I *1348:D I *D sky130_fd_sc_hd__and4b_1
*I *1513:Q O *D sky130_fd_sc_hd__dfrtp_4
*CAP
1 *1341:A1 0
2 *1419:B1 0.000115022
3 *1422:B 0
4 *1418:A 8.18936e-05
5 *1421:A1 8.90147e-05
6 *1348:D 1.73001e-05
7 *1513:Q 0.000886218
8 *208:123 0.00273069
9 *208:108 0.00400392
10 *208:88 0.00106899
11 *208:69 0.00216675
12 *208:61 0.00340426
13 *208:41 0.00400784
14 *208:22 0.00184675
15 *208:16 0.00325168
16 *208:22 *210:56 0.000978262
17 *208:22 *217:26 6.90109e-05
18 *208:22 *220:42 0.000273253
19 *208:41 *210:56 3.59911e-05
20 *208:61 *1339:A1 0.000138528
21 *208:61 *1422:A 4.82865e-05
22 *208:61 *212:40 0.00026818
23 *208:69 *209:72 9.91086e-05
24 *208:69 *216:18 0.000261298
25 *1341:A2 *208:123 0.00150724
26 *1348:B *1348:D 0.000132867
27 *1348:C *1348:D 0.000130944
28 *1418:B *1418:A 5.90995e-05
29 *1422:C *208:61 6.05161e-06
30 *1426:A *208:61 0.000134771
31 *1430:A *208:22 0.000203999
32 *1449:B1 *208:22 0
33 *1454:A1 *208:16 0
34 *1457:B *208:16 9.87617e-05
35 *1457:B *208:41 0.000129147
36 *1463:A *208:61 0.000130405
37 *1466:A *208:88 0.00178259
38 *1496:RESET_B *208:22 0.00214653
39 *1498:D *208:61 0.000922593
40 *1503:D *208:61 0.000544168
41 *1509:CLK *208:123 4.65158e-06
42 *1513:RESET_B *208:41 0.000426563
43 *1514:D *208:41 6.02429e-05
44 *1514:D *208:108 6.34006e-05
45 *1515:RESET_B *208:108 0.000890172
46 *1526:RESET_B *208:16 0
47 *1529:A *208:22 5.7903e-06
48 *47:26 *208:108 4.44813e-05
49 *47:28 *208:108 0.00026139
50 *47:95 *208:69 1.69115e-05
51 *50:22 *208:61 0.000892418
52 *53:10 *1421:A1 0.000320031
53 *53:12 *208:69 0.000221923
54 *53:12 *208:88 9.99644e-06
55 *60:20 *208:16 0.000365766
56 *88:62 *208:16 4.93272e-05
57 *94:8 *208:123 3.79877e-06
58 *117:20 *208:41 0.000111369
59 *118:20 *208:123 5.24654e-05
60 *120:18 *208:61 9.60875e-05
61 *133:10 *208:69 0.000145477
62 *147:84 *208:108 0
63 *148:14 *208:61 9.15954e-05
64 *148:20 *208:16 9.15186e-06
65 *149:54 *208:123 0.000392423
66 *152:10 *1418:A 3.18676e-05
67 *153:8 *1419:B1 0.000106467
68 *153:10 *208:22 0.00104018
69 *153:10 *208:41 4.33002e-05
70 *153:10 *208:108 0
71 *159:16 *208:41 0.000203437
72 *159:16 *208:108 9.60337e-06
73 *179:54 *208:88 0.000766711
74 *179:78 *208:88 0.000188364
75 *183:83 *208:22 1.4719e-05
76 *187:44 *208:16 0.000305523
77 *188:59 *208:108 0
78 *188:65 *208:41 8.85631e-05
79 *190:109 *208:41 0.000300812
80 *192:14 *1421:A1 0.000315887
81 *193:14 *208:16 1.94879e-05
82 *194:20 *208:22 7.58841e-05
83 *198:18 *208:88 0.00309545
84 *202:57 *208:41 0.000709046
85 *204:41 *208:61 0.000592363
86 *207:36 *208:123 0
*RES
1 *1513:Q *208:16 23.4757 
2 *208:16 *208:22 46.8839 
3 *208:22 *1348:D 15.0455 
4 *208:16 *208:41 25.0179 
5 *208:41 *208:61 36.3207 
6 *208:61 *208:69 23.8036 
7 *208:69 *1421:A1 22.3714 
8 *208:69 *208:88 49.9464 
9 *208:88 *1418:A 11.0857 
10 *208:61 *1422:B 9.3 
11 *208:41 *208:108 23.7054 
12 *208:108 *1419:B1 16.3893 
13 *208:108 *208:123 44.3036 
14 *208:123 *1341:A1 9.3 
*END

*D_NET *209 0.0321049
*CONN
*I *1421:B1 I *D sky130_fd_sc_hd__a41o_1
*I *1422:A I *D sky130_fd_sc_hd__and4_2
*I *1347:A_N I *D sky130_fd_sc_hd__and4b_1
*I *1341:B1 I *D sky130_fd_sc_hd__a21o_1
*I *1514:Q O *D sky130_fd_sc_hd__dfrtp_4
*CAP
1 *1421:B1 0.000338384
2 *1422:A 4.86916e-05
3 *1347:A_N 0.000541693
4 *1341:B1 2.91597e-05
5 *1514:Q 0
6 *209:72 0.00151938
7 *209:39 0.0052077
8 *209:14 0.00183597
9 *209:12 0.00335213
10 *209:4 0.00507902
11 *1421:B1 *212:40 0.000127476
12 *1421:B1 *221:52 1.08359e-05
13 *1422:A *212:40 0.000136676
14 *209:14 *219:16 0.00206907
15 *209:39 *214:34 0.00159919
16 *209:39 *222:18 2.24195e-05
17 *1345:C *209:14 0.000178986
18 *1347:B *1347:A_N 0.000511707
19 *1396:A *209:14 0.000333704
20 *1399:A1 *209:39 0.000634259
21 *1399:B1 *209:39 4.27338e-05
22 *1417:A *209:12 0.000473088
23 *1421:A2 *1421:B1 0.00107829
24 *1421:A3 *1421:B1 0.00112211
25 *1422:C *1421:B1 2.51343e-06
26 *1422:C *1422:A 8.25843e-06
27 *1470:A *1347:A_N 6.05161e-06
28 *1514:D *209:39 0.00030229
29 *1514:RESET_B *209:39 8.08911e-05
30 *1536:A *209:14 9.76057e-05
31 *1539:A *1347:A_N 5.74499e-06
32 *42:16 *209:39 2.06178e-05
33 *47:95 *1421:B1 0.000225314
34 *47:95 *209:72 0.000832952
35 *57:10 *1347:A_N 9.41642e-05
36 *76:20 *1347:A_N 0.000694592
37 *82:18 *209:39 3.68884e-05
38 *86:32 *209:39 0.000118658
39 *94:8 *1341:B1 1.92905e-05
40 *103:61 *209:12 6.43196e-05
41 *103:61 *209:39 3.38975e-05
42 *124:30 *209:39 0
43 *133:10 *209:72 0.000742209
44 *136:8 *209:14 0.000143327
45 *138:8 *209:39 0.000727773
46 *145:12 *1347:A_N 5.86614e-05
47 *155:8 *1421:B1 2.51343e-06
48 *155:18 *209:39 4.01319e-05
49 *155:32 *209:39 1.03782e-05
50 *165:26 *1347:A_N 3.65075e-05
51 *179:39 *1347:A_N 3.28417e-05
52 *179:52 *1347:A_N 3.08382e-06
53 *190:28 *209:14 0.000733523
54 *200:30 *1347:A_N 0.000204864
55 *200:30 *209:39 2.1479e-05
56 *200:30 *209:72 1.14338e-05
57 *207:100 *1421:B1 5.33005e-05
58 *207:108 *1421:B1 0.000198698
59 *208:61 *1422:A 4.82865e-05
60 *208:69 *209:72 9.91086e-05
*RES
1 *1514:Q *209:4 9.3 
2 *209:4 *209:12 28.4821 
3 *209:12 *209:14 48.3929 
4 *209:14 *1341:B1 14.3357 
5 *209:4 *209:39 41.4621 
6 *209:39 *1347:A_N 31.6475 
7 *209:39 *209:72 29.7567 
8 *209:72 *1422:A 10.6571 
9 *209:72 *1421:B1 33.3179 
*END

*D_NET *210 0.0331308
*CONN
*I *1357:A I *D sky130_fd_sc_hd__or2_1
*I *1364:A2 I *D sky130_fd_sc_hd__a31o_1
*I *1356:A I *D sky130_fd_sc_hd__nand2_1
*I *1360:B I *D sky130_fd_sc_hd__nand3_1
*I *1361:A1 I *D sky130_fd_sc_hd__a21o_1
*I *1342:C I *D sky130_fd_sc_hd__and4_4
*I *1496:Q O *D sky130_fd_sc_hd__dfrtp_4
*CAP
1 *1357:A 0.000154399
2 *1364:A2 0.000874608
3 *1356:A 0
4 *1360:B 1.55326e-05
5 *1361:A1 0
6 *1342:C 0.00134903
7 *1496:Q 0.000254313
8 *210:91 0.00205315
9 *210:66 0.00127505
10 *210:62 0.000854716
11 *210:56 0.00221265
12 *210:33 0.00283498
13 *210:10 0.00284501
14 *1360:B *218:82 1.00733e-05
15 *1364:A2 *1364:B1 0.000110772
16 *210:33 *1361:B1 0.000435366
17 *210:33 *214:46 0.00021273
18 *210:33 *215:8 0
19 *210:33 *216:42 0.000463642
20 *210:33 *218:30 0.00029568
21 *210:56 *1369:A 6.09762e-05
22 *210:56 *1442:A 7.63663e-05
23 *210:56 *220:42 0.000120368
24 *210:62 *211:27 0.000679164
25 *210:62 *218:70 6.595e-05
26 *210:66 *218:72 0.000308567
27 *210:66 *218:82 1.59373e-05
28 *210:91 *1364:B1 0.000217403
29 *210:91 *218:82 1.93106e-05
30 *210:91 *219:14 0.00151539
31 *1360:C *1360:B 1.73088e-05
32 *1360:C *210:91 5.99973e-05
33 *1362:B *210:33 0.000759687
34 *1364:A3 *1364:A2 0.00225971
35 *1383:A *210:56 1.0792e-05
36 *1383:B *210:56 0.000159935
37 *1386:D *210:91 6.30931e-05
38 *1407:A *1342:C 0.000353865
39 *1415:A *1364:A2 4.46426e-05
40 *1424:A *210:91 8.78944e-05
41 *1430:A *210:56 9.68834e-05
42 *1435:B *1364:A2 3.06432e-05
43 *1445:B *1342:C 0.000366129
44 *1445:B *210:10 4.59514e-05
45 *1445:B *210:33 7.29594e-05
46 *1455:B *1357:A 8.6229e-06
47 *1458:A *210:10 0.000116516
48 *1459:B1_N *1357:A 0.000153331
49 *1459:B1_N *210:62 0.000212733
50 *1499:D *1342:C 1.01912e-05
51 *1510:RESET_B *210:91 6.46173e-05
52 *1513:D *210:56 0
53 *1519:CLK *1342:C 7.25873e-06
54 *1519:D *1342:C 0.00014947
55 *1519:RESET_B *1342:C 0.000222256
56 *1526:CLK *210:56 0.000167872
57 *1529:A *210:56 2.22043e-05
58 *22:20 *1357:A 5.20529e-05
59 *22:20 *210:62 9.22222e-06
60 *29:30 *210:56 0.000400999
61 *33:16 *210:56 1.28364e-05
62 *70:18 *210:62 0.000512747
63 *76:36 *1364:A2 6.69572e-05
64 *84:49 *1357:A 0.00012401
65 *84:49 *210:62 0.000189478
66 *88:62 *210:56 2.06112e-05
67 *94:22 *210:33 0
68 *97:71 *210:33 0.000305275
69 *105:45 *210:33 0.000601158
70 *110:24 *210:66 0.000308567
71 *112:18 *210:10 0.000403973
72 *113:16 *1364:A2 0.000670399
73 *133:10 *1364:A2 5.15308e-05
74 *144:26 *210:33 2.78822e-05
75 *148:14 *210:91 6.07555e-05
76 *148:20 *210:33 7.9765e-05
77 *153:10 *210:56 0.000363384
78 *155:59 *210:56 2.03079e-05
79 *165:16 *1364:A2 0.000180334
80 *180:125 *210:91 0.000108658
81 *181:75 *1357:A 3.35685e-06
82 *183:20 *1342:C 0
83 *184:97 *210:56 0.000257294
84 *184:99 *210:56 0.000192803
85 *186:8 *1357:A 0.000136958
86 *190:109 *210:56 0.000276669
87 *198:16 *1357:A 4.43256e-05
88 *199:27 *210:91 9.71197e-05
89 *199:46 *210:62 0.000302736
90 *199:56 *210:56 7.07669e-05
91 *199:62 *210:33 6.86019e-05
92 *199:62 *210:56 1.10868e-05
93 *199:107 *1364:A2 4.6141e-05
94 *202:10 *210:56 0.000373632
95 *204:24 *210:91 0.000104976
96 *205:50 *1357:A 5.52302e-05
97 *206:49 *210:91 0.000608201
98 *208:22 *210:56 0.000978262
99 *208:41 *210:56 3.59911e-05
*RES
1 *1496:Q *210:10 15.7286 
2 *210:10 *1342:C 39.2286 
3 *210:10 *210:33 41.0357 
4 *210:33 *1361:A1 9.3 
5 *210:33 *210:56 46.1429 
6 *210:56 *210:62 20.2143 
7 *210:62 *210:66 7.91071 
8 *210:66 *1360:B 9.72857 
9 *210:66 *210:91 26.124 
10 *210:91 *1356:A 9.3 
11 *210:91 *1364:A2 45.7643 
12 *210:62 *1357:A 18.3714 
*END

*D_NET *211 0.0207298
*CONN
*I *1432:A I *D sky130_fd_sc_hd__and4_1
*I *1350:C I *D sky130_fd_sc_hd__and4_2
*I *1428:A I *D sky130_fd_sc_hd__nand2_1
*I *1427:A I *D sky130_fd_sc_hd__or2_1
*I *1515:Q O *D sky130_fd_sc_hd__dfrtp_1
*CAP
1 *1432:A 0
2 *1350:C 0
3 *1428:A 0.00142077
4 *1427:A 6.41294e-05
5 *1515:Q 0.000984686
6 *211:61 0.00132717
7 *211:46 0.00167179
8 *211:27 0.0021857
9 *211:10 0.00146912
10 *211:46 *1350:D 5.49489e-05
11 *211:61 *1350:B 0.000760607
12 *211:61 *1386:A 5.06873e-05
13 *211:61 *212:40 7.49387e-06
14 *211:61 *213:35 0.000287578
15 *211:61 *225:35 5.28368e-06
16 *1339:A2 *211:61 0.0001243
17 *1427:B *211:27 0.000764866
18 *1515:RESET_B *1427:A 0.000170308
19 *1515:RESET_B *211:10 0.000407739
20 *1523:RESET_B *211:10 0.000255689
21 *22:20 *1428:A 3.47641e-06
22 *22:20 *211:27 0.000130111
23 *47:26 *211:10 0.000308913
24 *70:18 *211:10 0.000156375
25 *77:12 *211:61 0.000177055
26 *78:12 *1428:A 0.00146169
27 *84:49 *211:27 7.32272e-05
28 *85:10 *1428:A 2.16898e-05
29 *85:22 *1428:A 1.89583e-05
30 *93:6 *211:61 4.81126e-05
31 *108:18 *1428:A 0.000199855
32 *108:18 *211:27 0.00029683
33 *156:31 *1428:A 0
34 *163:6 *211:61 0.0008709
35 *163:12 *211:61 0.00144606
36 *165:45 *1428:A 1.46231e-05
37 *168:24 *1428:A 0.000183477
38 *179:131 *211:61 0.000121495
39 *180:70 *211:46 0.00030182
40 *182:66 *1428:A 0
41 *187:145 *211:61 0.000753295
42 *189:26 *1428:A 0
43 *189:28 *1428:A 0.000190738
44 *189:87 *1428:A 0.00010103
45 *193:22 *1428:A 0.000227636
46 *199:46 *211:27 1.21289e-05
47 *203:31 *1427:A 0.000168722
48 *203:31 *211:10 0.00046654
49 *204:24 *211:61 0.000139907
50 *204:41 *211:61 5.71472e-05
51 *207:16 *211:61 9.15842e-06
52 *207:79 *211:61 7.68385e-05
53 *210:62 *211:27 0.000679164
*RES
1 *1515:Q *211:10 32.8714 
2 *211:10 *1427:A 16.05 
3 *211:10 *211:27 21.4107 
4 *211:27 *1428:A 44.0857 
5 *211:27 *211:46 10.7857 
6 *211:46 *1350:C 9.3 
7 *211:46 *211:61 47.2679 
8 *211:61 *1432:A 9.3 
*END

*D_NET *212 0.0205502
*CONN
*I *1432:B I *D sky130_fd_sc_hd__and4_1
*I *1350:D I *D sky130_fd_sc_hd__and4_2
*I *1431:A I *D sky130_fd_sc_hd__inv_2
*I *1516:Q O *D sky130_fd_sc_hd__dfrtp_2
*CAP
1 *1432:B 0
2 *1350:D 8.55234e-05
3 *1431:A 0.000111208
4 *1516:Q 0.000585019
5 *212:40 0.00238156
6 *212:23 0.00279586
7 *212:12 0.00182308
8 *212:8 0.00262567
9 *1431:A *224:65 0.000143816
10 *212:12 *214:34 0.000190689
11 *212:12 *225:35 0.000210481
12 *212:23 *225:35 7.96882e-05
13 *212:40 *221:52 0.001211
14 *1421:B1 *212:40 0.000127476
15 *1422:A *212:40 0.000136676
16 *1463:A *212:40 0.000434813
17 *82:18 *212:12 0
18 *103:24 *212:12 0.000523765
19 *103:24 *212:23 0.000368522
20 *107:40 *212:8 0.000816954
21 *115:22 *212:12 0.000865623
22 *128:12 *212:12 0.000524456
23 *141:43 *212:40 0.000195506
24 *144:10 *212:12 7.83659e-05
25 *147:12 *212:40 0.000750603
26 *147:14 *212:40 0.000167691
27 *147:16 *212:40 0.000292708
28 *155:8 *212:40 9.9471e-06
29 *155:18 *212:12 9.76123e-05
30 *155:32 *212:12 0.00131458
31 *156:10 *212:12 0
32 *156:31 *212:23 0
33 *180:25 *1431:A 0.000279879
34 *180:58 *212:23 0.000272708
35 *201:62 *1431:A 0.000568785
36 *204:24 *212:40 4.70048e-05
37 *204:41 *212:40 0.000102345
38 *208:61 *212:40 0.00026818
39 *211:46 *1350:D 5.49489e-05
40 *211:61 *212:40 7.49387e-06
*RES
1 *1516:Q *212:8 21.7286 
2 *212:8 *212:12 45 
3 *212:12 *1431:A 14.7643 
4 *212:8 *212:23 11.9107 
5 *212:23 *1350:D 10.8714 
6 *212:23 *212:40 49.7857 
7 *212:40 *1432:B 9.3 
*END

*D_NET *213 0.0178497
*CONN
*I *1435:A I *D sky130_fd_sc_hd__nand2_1
*I *1350:B I *D sky130_fd_sc_hd__and4_2
*I *1434:A I *D sky130_fd_sc_hd__or2_1
*I *1517:Q O *D sky130_fd_sc_hd__dfrtp_1
*CAP
1 *1435:A 0.00107108
2 *1350:B 0.000368888
3 *1434:A 0.000988854
4 *1517:Q 0
5 *213:35 0.00201994
6 *213:25 0.00143962
7 *213:4 0.0018485
8 *1350:B *1386:A 0.000384706
9 *1350:B *225:35 0.000115561
10 *213:35 *1386:A 0.000279035
11 *1330:A *213:25 0.000271898
12 *1365:C *213:25 0.000290294
13 *1435:B *1435:A 3.45371e-05
14 *1451:A_N *213:25 0.000655732
15 *1451:C *213:25 4.58194e-05
16 *1455:B *213:35 0.000432834
17 *1479:A *213:35 0.000508893
18 *1510:CLK *1435:A 8.17274e-05
19 *1510:D *1435:A 0.000423864
20 *1511:RESET_B *213:35 0.000182605
21 *1512:RESET_B *213:25 9.41642e-05
22 *1517:CLK *1434:A 8.86086e-05
23 *1517:RESET_B *1434:A 0.000134421
24 *22:12 *213:25 0.000480057
25 *55:16 *213:25 0.000303517
26 *62:10 *213:25 0
27 *134:47 *213:25 0.0010234
28 *147:74 *1435:A 6.24997e-05
29 *164:8 *1434:A 3.4026e-05
30 *179:131 *213:35 0
31 *184:59 *213:25 6.70364e-05
32 *186:117 *1435:A 0.000219711
33 *188:31 *213:25 0.000285808
34 *188:31 *213:35 0
35 *188:37 *213:25 0.00128871
36 *191:12 *1434:A 0.00100021
37 *199:107 *1435:A 0.000130737
38 *205:10 *1435:A 6.05445e-05
39 *207:16 *213:35 5.64029e-05
40 *207:79 *1435:A 2.72695e-05
41 *211:61 *1350:B 0.000760607
42 *211:61 *213:35 0.000287578
*RES
1 *1517:Q *213:4 9.3 
2 *213:4 *1434:A 26.8179 
3 *213:4 *213:25 47.2679 
4 *213:25 *213:35 23.8036 
5 *213:35 *1350:B 23.4786 
6 *213:35 *1435:A 38.2643 
*END

*D_NET *214 0.0244706
*CONN
*I *1350:A I *D sky130_fd_sc_hd__and4_2
*I *1438:A I *D sky130_fd_sc_hd__inv_2
*I *1518:Q O *D sky130_fd_sc_hd__dfrtp_2
*CAP
1 *1350:A 0.000470613
2 *1438:A 0
3 *1518:Q 9.11365e-05
4 *214:46 0.00184419
5 *214:34 0.0035079
6 *214:14 0.00380161
7 *214:10 0.00175842
8 *1350:A *224:53 0.000206192
9 *1350:A *225:35 0.00102592
10 *214:14 *223:25 0.000391367
11 *214:34 *225:35 0.000469814
12 *214:46 *216:42 0.000792117
13 *214:46 *218:30 0.000169696
14 *214:46 *222:10 0.000384673
15 an[7] *214:10 2.16833e-05
16 *227:DIODE *214:46 0.00012783
17 *1339:A2 *1350:A 2.74784e-05
18 *1395:A *214:34 3.69697e-05
19 *1505:RESET_B *214:14 0.00245595
20 *1520:D *214:14 0.000984348
21 *1537:A *214:10 0.000169959
22 *43:24 *214:46 0.000367544
23 *44:12 *214:14 0.000561238
24 *47:28 *214:34 7.83659e-05
25 *105:66 *214:46 0.0002253
26 *115:8 *214:14 9.71197e-05
27 *115:10 *1350:A 1.36251e-05
28 *115:10 *214:34 9.98699e-05
29 *115:132 *1350:A 0.000229356
30 *135:16 *214:46 0.000845286
31 *138:8 *214:34 3.75081e-05
32 *155:18 *214:34 9.41642e-05
33 *167:12 *214:46 7.27837e-05
34 *176:37 *214:46 0.000362387
35 *179:10 *214:34 7.40536e-05
36 *180:31 *214:14 0.000298483
37 *180:44 *214:14 0.000178847
38 *191:41 *214:34 9.41642e-05
39 *209:39 *214:34 0.00159919
40 *210:33 *214:46 0.00021273
41 *212:12 *214:34 0.000190689
*RES
1 *1518:Q *214:10 20.55 
2 *214:10 *214:14 44.875 
3 *214:14 *214:34 48.1786 
4 *214:34 *214:46 43.9464 
5 *214:46 *1438:A 9.3 
6 *214:14 *1350:A 27.5857 
*END

*D_NET *215 0.0178264
*CONN
*I *1441:B1 I *D sky130_fd_sc_hd__a21oi_2
*I *1442:A I *D sky130_fd_sc_hd__and3_2
*I *1351:C1 I *D sky130_fd_sc_hd__o211ai_4
*I *1519:Q O *D sky130_fd_sc_hd__dfrtp_4
*CAP
1 *1441:B1 0.000130875
2 *1442:A 0.00123091
3 *1351:C1 0.000240773
4 *1519:Q 0.000149518
5 *215:35 0.00288769
6 *215:8 0.0019162
7 *1442:A *1369:A 5.14314e-05
8 *215:35 *216:42 0.000261511
9 *215:35 *223:23 0.000122814
10 *1351:B1 *1351:C1 5.4315e-05
11 *1387:C *215:35 0.000538871
12 *1441:A1 *1441:B1 9.60875e-05
13 *1441:A1 *1442:A 3.55552e-05
14 *1442:C *1442:A 0.00035013
15 *1445:B *215:8 0
16 *1449:C1 *1351:C1 0
17 *1456:A *1442:A 0.000408209
18 *1506:CLK *1441:B1 2.89016e-05
19 *1519:RESET_B *215:8 8.6229e-06
20 *33:16 *1442:A 0.000757354
21 *55:16 *1441:B1 2.12521e-05
22 *80:12 *1442:A 0.000196522
23 *89:14 *215:35 0.00152643
24 *94:22 *215:8 5.4315e-05
25 *94:22 *215:35 0.00206202
26 *102:16 *1351:C1 0.000280937
27 *111:10 *215:8 2.06103e-05
28 *111:10 *215:35 9.49559e-05
29 *125:16 *215:35 0.000645381
30 *130:10 *215:35 2.14474e-05
31 *139:55 *1351:C1 0.000829187
32 *143:8 *1351:C1 0.000655628
33 *143:20 *1351:C1 6.77339e-05
34 *169:26 *215:35 4.94627e-05
35 *175:34 *215:35 0.000320681
36 *180:80 *1441:B1 0.000167375
37 *180:80 *215:35 0.000147156
38 *184:8 *1442:A 0.000298483
39 *184:12 *1441:B1 0.000157117
40 *184:12 *215:35 1.02504e-05
41 *184:27 *1441:B1 5.37664e-05
42 *187:34 *1442:A 9.41642e-05
43 *190:22 *215:35 0.000170484
44 *202:10 *1442:A 0.000534892
45 *210:33 *215:8 0
46 *210:56 *1442:A 7.63663e-05
*RES
1 *1519:Q *215:8 16.3536 
2 *215:8 *1351:C1 32.8179 
3 *215:8 *215:35 49.5179 
4 *215:35 *1442:A 48.1214 
5 *215:35 *1441:B1 17.6036 
*END

*D_NET *216 0.0338484
*CONN
*I *1340:A I *D sky130_fd_sc_hd__inv_2
*I *1444:A I *D sky130_fd_sc_hd__or2_1
*I *1449:A2 I *D sky130_fd_sc_hd__o211a_1
*I *1445:A I *D sky130_fd_sc_hd__nand2_1
*I *1520:Q O *D sky130_fd_sc_hd__dfrtp_4
*CAP
1 *1340:A 0.000841614
2 *1444:A 0
3 *1449:A2 0.000655471
4 *1445:A 0
5 *1520:Q 0.00106062
6 *216:70 0.00181989
7 *216:54 0.00272629
8 *216:48 0.000480982
9 *216:42 0.00143026
10 *216:32 0.00250028
11 *216:28 0.00284241
12 *216:18 0.00344457
13 *1449:A2 *217:26 0.000144986
14 *216:28 *221:10 0.00096528
15 *216:42 *218:24 6.57032e-05
16 *216:42 *223:23 5.72705e-05
17 *216:54 *218:42 0.000120316
18 *232:DIODE *216:70 5.45307e-05
19 *1362:B *216:70 0.000563619
20 *1409:B *216:70 0.000167669
21 *1444:B *216:54 3.17163e-05
22 *1445:B *216:54 0.000201368
23 *1449:B1 *1449:A2 0.000144986
24 *1451:C *1340:A 0.00032783
25 *1457:B *216:42 0.000135028
26 *1499:RESET_B *1449:A2 0.000117008
27 *1500:CLK *216:32 1.84865e-05
28 *1500:D *216:32 2.87452e-05
29 *1500:RESET_B *216:28 0.00113297
30 *1500:RESET_B *216:32 4.24142e-05
31 *1502:RESET_B *216:42 0.000631511
32 *1517:RESET_B *1340:A 0.000276588
33 *1520:CLK *216:18 0.000252092
34 *1523:D *1340:A 7.70756e-05
35 *1525:RESET_B *216:28 0.000175995
36 *26:8 *216:18 0.00017309
37 *53:12 *216:18 0.000677706
38 *54:24 *1340:A 0.000349504
39 *84:80 *216:28 0.000388036
40 *86:10 *1340:A 0
41 *95:109 *216:18 7.64641e-05
42 *105:66 *216:42 0.000174467
43 *105:107 *216:42 0.000142363
44 *118:18 *216:18 0.000171375
45 *120:62 *216:18 9.41642e-05
46 *129:10 *216:18 0.000147844
47 *139:55 *216:54 0
48 *141:16 *216:70 4.72217e-05
49 *144:26 *216:42 0.00151013
50 *148:20 *1340:A 0.000729701
51 *148:20 *216:42 0.000375699
52 *170:26 *216:48 3.32631e-05
53 *170:64 *216:28 0.000331251
54 *172:14 *216:70 3.17866e-05
55 *174:40 *1449:A2 0.000137639
56 *175:34 *1340:A 0.000732964
57 *175:34 *216:42 0.000177421
58 *175:47 *1340:A 0.000381883
59 *180:48 *216:28 0.000559325
60 *180:58 *216:28 0.000333225
61 *180:156 *216:28 0.000223597
62 *184:97 *216:32 0.000217698
63 *200:63 *1449:A2 0.000161474
64 *200:63 *216:70 8.41499e-05
65 *200:65 *216:70 3.09985e-05
66 *204:41 *216:18 3.97677e-05
67 *208:69 *216:18 0.000261298
68 *210:33 *216:42 0.000463642
69 *214:46 *216:42 0.000792117
70 *215:35 *216:42 0.000261511
*RES
1 *1520:Q *216:18 47.3714 
2 *216:18 *216:28 42.875 
3 *216:28 *216:32 12.8393 
4 *216:32 *216:42 48.8571 
5 *216:42 *216:48 7.92857 
6 *216:48 *216:54 14.8929 
7 *216:54 *216:70 42.9821 
8 *216:70 *1445:A 9.3 
9 *216:54 *1449:A2 28.175 
10 *216:48 *1444:A 9.3 
11 *216:32 *1340:A 45.7821 
*END

*D_NET *217 0.0135523
*CONN
*I *1352:B1_N I *D sky130_fd_sc_hd__a21bo_2
*I *1449:A1 I *D sky130_fd_sc_hd__o211a_1
*I *1521:Q O *D sky130_fd_sc_hd__dfrtp_1
*CAP
1 *1352:B1_N 0.000672605
2 *1449:A1 0
3 *1521:Q 0.0006949
4 *217:26 0.0013756
5 *217:10 0.00274311
6 *217:26 *1346:C 0
7 *217:26 *1372:B1 0.00023502
8 *1334:A *1352:B1_N 8.57023e-05
9 *1334:A *217:26 0.000601223
10 *1425:B *1352:B1_N 2.60673e-05
11 *1446:B *217:10 0.00023716
12 *1449:A2 *217:26 0.000144986
13 *1483:A *217:26 0.000219227
14 *23:12 *217:10 0.00155223
15 *48:12 *217:26 0.000142725
16 *61:14 *217:26 0
17 *85:22 *217:10 5.84267e-05
18 *95:83 *1352:B1_N 0.000318022
19 *95:98 *1352:B1_N 0.000114994
20 *115:76 *1352:B1_N 1.34959e-05
21 *115:101 *1352:B1_N 3.72132e-05
22 *129:16 *1352:B1_N 0.000535247
23 *131:26 *217:10 0.000274242
24 *138:12 *1352:B1_N 0.000168089
25 *153:28 *217:10 0.000977228
26 *157:16 *1352:B1_N 0.000825258
27 *157:16 *217:26 0.000197088
28 *174:40 *217:26 0.000850621
29 *180:31 *1352:B1_N 0.000170055
30 *201:45 *217:26 0
31 *203:31 *217:10 0.000212801
32 *208:22 *217:26 6.90109e-05
*RES
1 *1521:Q *217:10 40.5857 
2 *217:10 *217:26 44.5 
3 *217:26 *1449:A1 9.3 
4 *217:10 *1352:B1_N 37.9295 
*END

*D_NET *218 0.0374263
*CONN
*I *1360:A I *D sky130_fd_sc_hd__nand3_1
*I *1364:A1 I *D sky130_fd_sc_hd__a31o_1
*I *1361:B1 I *D sky130_fd_sc_hd__a21o_1
*I *1342:B I *D sky130_fd_sc_hd__and4_4
*I *1497:Q O *D sky130_fd_sc_hd__dfrtp_4
*CAP
1 *1360:A 0
2 *1364:A1 0
3 *1361:B1 9.05671e-05
4 *1342:B 0
5 *1497:Q 0.00121206
6 *218:96 0.00347812
7 *218:82 0.00425475
8 *218:72 0.00115603
9 *218:70 0.00260894
10 *218:42 0.00170356
11 *218:30 0.00239791
12 *218:24 0.00155584
13 *218:14 0.00439366
14 *218:42 *1342:A 4.82865e-05
15 *218:70 *1333:A1_N 0.000114339
16 *218:70 *226:27 9.25014e-06
17 *218:82 *1339:A1 4.46186e-06
18 *218:82 *226:56 3.28967e-05
19 *218:96 *224:8 5.33005e-05
20 an[4] *218:96 4.13122e-06
21 *1351:B1 *218:42 0
22 *1360:B *218:82 1.00733e-05
23 *1360:C *218:82 1.83053e-05
24 *1362:B *218:42 0
25 *1387:C *218:42 0.000139907
26 *1407:A *218:42 0.000354902
27 *1409:A *218:42 5.33005e-05
28 *1424:A *218:82 0.000338696
29 *1433:A2 *218:70 0
30 *1457:B *218:24 0.000170868
31 *1466:A *218:96 7.48091e-05
32 *1497:CLK *218:14 7.57144e-05
33 *1497:CLK *218:70 0.000125084
34 *1497:D *218:14 0.000224535
35 *1497:RESET_B *218:14 6.87539e-05
36 *1497:RESET_B *218:70 0.00029316
37 *1504:D *218:42 8.62237e-05
38 *1532:A *218:82 7.40526e-05
39 *28:10 *218:14 1.6603e-05
40 *32:16 *218:14 6.94952e-05
41 *36:12 *218:42 0.000930849
42 *94:10 *218:24 0.000236489
43 *95:36 *218:42 0.000900902
44 *95:53 *218:70 0.000194069
45 *103:61 *218:42 0.000141551
46 *105:66 *218:30 0.000755417
47 *105:107 *218:30 0.000286869
48 *107:20 *218:96 4.33273e-05
49 *110:24 *218:72 0.000207954
50 *128:22 *218:42 0.000195555
51 *139:55 *218:42 0
52 *147:66 *218:96 0.000128409
53 *148:20 *218:30 0.00141637
54 *149:6 *218:96 9.71197e-05
55 *149:14 *218:96 0.000123959
56 *150:30 *218:42 0.000108511
57 *164:12 *218:14 0
58 *166:10 *218:24 2.28335e-05
59 *169:26 *218:30 0.000120151
60 *176:12 *218:24 0.000981783
61 *176:43 *218:42 0
62 *188:65 *218:70 0.000125243
63 *196:14 *218:24 0.000567906
64 *196:34 *218:42 0
65 *199:27 *218:82 8.43535e-06
66 *199:46 *218:70 0.000685208
67 *199:62 *1361:B1 0.000422929
68 *199:62 *218:30 0.000264456
69 *199:107 *218:82 0.000301438
70 *201:45 *218:42 1.98839e-05
71 *206:58 *218:96 0.000263524
72 *206:69 *218:96 0.00106608
73 *210:33 *1361:B1 0.000435366
74 *210:33 *218:30 0.00029568
75 *210:62 *218:70 6.595e-05
76 *210:66 *218:72 0.000308567
77 *210:66 *218:82 1.59373e-05
78 *210:91 *218:82 1.93106e-05
79 *214:46 *218:30 0.000169696
80 *216:42 *218:24 6.57032e-05
81 *216:54 *218:42 0.000120316
*RES
1 *1497:Q *218:14 34.8893 
2 *218:14 *218:24 33.1607 
3 *218:24 *218:30 25.7321 
4 *218:30 *218:42 44.6607 
5 *218:42 *1342:B 9.3 
6 *218:30 *1361:B1 13.5321 
7 *218:14 *218:70 47.0893 
8 *218:70 *218:72 7.10714 
9 *218:72 *218:82 19.5179 
10 *218:82 *218:96 48.8036 
11 *218:96 *1364:A1 13.8 
12 *218:72 *1360:A 9.3 
*END

*D_NET *219 0.0308632
*CONN
*I *1364:B1 I *D sky130_fd_sc_hd__a31o_1
*I *236:DIODE I *D sky130_fd_sc_hd__diode_2
*I *1342:A I *D sky130_fd_sc_hd__and4_4
*I *1498:Q O *D sky130_fd_sc_hd__dfrtp_2
*CAP
1 *1364:B1 0.00129297
2 *236:DIODE 0
3 *1342:A 0.000311989
4 *1498:Q 2.0454e-05
5 *219:20 0.000380235
6 *219:16 0.00123552
7 *219:14 0.00538255
8 *219:10 0.00552869
9 *1333:B1 *219:14 0.000218386
10 *1364:A2 *1364:B1 0.000110772
11 *1364:A3 *1364:B1 0.00186226
12 *1404:B *1364:B1 4.99138e-05
13 *1407:A *1342:A 0.000228266
14 *1407:A *219:20 3.28516e-05
15 *1415:A *219:14 0.00046811
16 *1503:D *219:14 0
17 *1510:D *1364:B1 0.00102712
18 *1510:RESET_B *1364:B1 0.00017609
19 *25:18 *219:16 0.00112635
20 *27:12 *1364:B1 4.95394e-05
21 *76:36 *1364:B1 0
22 *95:12 *219:16 0
23 *95:109 *219:10 4.19535e-05
24 *110:24 *219:14 8.92205e-05
25 *120:18 *219:10 4.19535e-05
26 *136:8 *219:16 0.00357513
27 *148:14 *219:14 0.000444169
28 *165:16 *1364:B1 0
29 *172:14 *219:16 0
30 *190:28 *219:16 0.000509877
31 *198:16 *1364:B1 0.000326716
32 *198:16 *219:14 0.0021723
33 *206:49 *219:14 0.000309703
34 *209:14 *219:16 0.00206907
35 *210:91 *1364:B1 0.000217403
36 *210:91 *219:14 0.00151539
37 *218:42 *1342:A 4.82865e-05
*RES
1 *1498:Q *219:10 17.7904 
2 *219:10 *219:14 14.7715 
3 *219:14 *219:16 52.4911 
4 *219:16 *219:20 5.44643 
5 *219:20 *1342:A 15.2107 
6 *219:20 *236:DIODE 9.3 
7 *219:10 *1364:B1 44.949 
*END

*D_NET *220 0.0374643
*CONN
*I *1373:B I *D sky130_fd_sc_hd__and3_1
*I *1343:D I *D sky130_fd_sc_hd__and4_1
*I *1368:A I *D sky130_fd_sc_hd__nand2_1
*I *1372:A1 I *D sky130_fd_sc_hd__a21oi_1
*I *1369:A I *D sky130_fd_sc_hd__or2_1
*I *1499:Q O *D sky130_fd_sc_hd__dfrtp_4
*CAP
1 *1373:B 0
2 *1343:D 0
3 *1368:A 0
4 *1372:A1 0
5 *1369:A 6.80979e-05
6 *1499:Q 0.00135436
7 *220:108 0.00149746
8 *220:102 0.00251463
9 *220:89 0.00238084
10 *220:66 0.00278599
11 *220:55 0.00228482
12 *220:42 0.00242371
13 *220:12 0.00457246
14 *220:55 *1372:B1 0.000272994
15 *220:66 *1372:B1 9.60875e-05
16 *220:89 *1343:B 0.000192269
17 *220:89 *221:37 1.33343e-05
18 *220:89 *221:46 4.18895e-05
19 *220:102 *221:46 0.00060375
20 *220:108 *221:52 1.40415e-05
21 *1362:A *220:12 0.000516479
22 *1380:A2 *220:102 0.000301438
23 *1384:A *220:12 0.000581345
24 *1389:A *220:12 0
25 *1430:A *220:42 0.000302281
26 *1442:A *1369:A 5.14314e-05
27 *1449:B1 *220:42 0.000451437
28 *1494:A *220:66 7.90803e-05
29 *1504:D *220:12 0.000361469
30 *1529:A *220:42 0.00100724
31 *1530:A *220:42 9.04146e-05
32 *29:30 *220:42 0.000277443
33 *33:16 *1369:A 5.19522e-06
34 *39:22 *220:42 0.000334417
35 *44:12 *220:89 0.000715564
36 *67:10 *220:89 7.62691e-05
37 *80:12 *1369:A 9.41642e-05
38 *88:62 *220:42 0
39 *95:36 *220:42 0.000629496
40 *95:83 *220:66 0.000595691
41 *106:33 *220:108 0
42 *110:24 *220:42 1.54105e-05
43 *113:16 *220:108 0.000491761
44 *117:26 *220:108 0.000597276
45 *118:10 *220:108 6.16901e-05
46 *118:18 *220:108 0.00212115
47 *129:10 *220:89 0.000192269
48 *153:10 *220:42 0.000177072
49 *154:12 *220:108 0.000283426
50 *168:24 *220:42 0.000181176
51 *179:24 *220:55 0.000172478
52 *180:31 *220:66 0.000262948
53 *180:31 *220:89 0.00176896
54 *187:34 *1369:A 9.41642e-05
55 *187:68 *220:42 4.13903e-05
56 *189:36 *220:12 0.000133965
57 *189:36 *220:55 0.000191373
58 *191:41 *220:89 0.000516151
59 *191:43 *220:66 0.000188967
60 *191:43 *220:89 0.00109181
61 *193:22 *220:42 0.00017754
62 *200:97 *220:12 4.75566e-05
63 *207:122 *220:66 0.000613611
64 *208:22 *220:42 0.000273253
65 *210:56 *1369:A 6.09762e-05
66 *210:56 *220:42 0.000120368
*RES
1 *1499:Q *220:12 39.6036 
2 *220:12 *220:42 49.6516 
3 *220:42 *1369:A 15.6304 
4 *220:12 *220:55 11.2143 
5 *220:55 *1372:A1 9.3 
6 *220:55 *220:66 25.75 
7 *220:66 *1368:A 13.8 
8 *220:66 *220:89 47.625 
9 *220:89 *1343:D 9.3 
10 *220:89 *220:102 18.3214 
11 *220:102 *220:108 45.5357 
12 *220:108 *1373:B 9.3 
*END

*D_NET *221 0.0243696
*CONN
*I *1373:A I *D sky130_fd_sc_hd__and3_1
*I *1343:C I *D sky130_fd_sc_hd__and4_1
*I *1372:B1 I *D sky130_fd_sc_hd__a21oi_1
*I *1500:Q O *D sky130_fd_sc_hd__dfrtp_2
*CAP
1 *1373:A 0
2 *1343:C 0
3 *1372:B1 0.00120275
4 *1500:Q 0.000515674
5 *221:52 0.00143494
6 *221:46 0.00192774
7 *221:37 0.00238127
8 *221:10 0.0036069
9 *1372:B1 *222:10 1.08359e-05
10 *1372:B1 *226:16 0
11 *221:10 *1375:A 3.88819e-05
12 *221:37 *224:53 0.000177821
13 *1329:B *221:37 0.00104666
14 *1373:C *221:52 0.000387466
15 *1377:C *221:52 0.000342601
16 *1394:A *221:52 6.01521e-05
17 *1421:B1 *221:52 1.08359e-05
18 *1452:D1 *221:37 0.000119251
19 *47:95 *221:52 0.000391382
20 *48:12 *1372:B1 0.00056112
21 *48:20 *1372:B1 0.000901285
22 *48:20 *221:10 0.000504852
23 *95:68 *1372:B1 5.52238e-05
24 *95:83 *1372:B1 0.000125547
25 *118:18 *221:52 0
26 *120:8 *221:52 0.000118604
27 *147:10 *221:52 0.000256418
28 *147:16 *221:52 0.000280192
29 *159:16 *1372:B1 0.00070513
30 *159:16 *221:10 3.06511e-05
31 *159:16 *221:37 5.33005e-05
32 *162:26 *1372:B1 0.000139767
33 *170:64 *221:10 0.000551498
34 *179:24 *1372:B1 0.000250863
35 *181:31 *1372:B1 0.000560511
36 *188:65 *221:10 0.000401561
37 *189:26 *221:37 0.000351992
38 *189:36 *1372:B1 1.69961e-05
39 *190:58 *221:37 0.000166932
40 *190:73 *221:37 1.21258e-05
41 *190:109 *221:10 0.000103211
42 *207:108 *221:52 0.00111327
43 *212:40 *221:52 0.001211
44 *216:28 *221:10 0.00096528
45 *217:26 *1372:B1 0.00023502
46 *220:55 *1372:B1 0.000272994
47 *220:66 *1372:B1 9.60875e-05
48 *220:89 *221:37 1.33343e-05
49 *220:89 *221:46 4.18895e-05
50 *220:102 *221:46 0.00060375
51 *220:108 *221:52 1.40415e-05
*RES
1 *1500:Q *221:10 30.175 
2 *221:10 *1372:B1 47.3893 
3 *221:10 *221:37 33.6964 
4 *221:37 *1343:C 9.3 
5 *221:37 *221:46 14.8929 
6 *221:46 *221:52 47.8214 
7 *221:52 *1373:A 9.3 
*END

*D_NET *222 0.0130327
*CONN
*I *1375:A I *D sky130_fd_sc_hd__or2_1
*I *1343:B I *D sky130_fd_sc_hd__and4_1
*I *1376:A I *D sky130_fd_sc_hd__nand2_1
*I *1501:Q O *D sky130_fd_sc_hd__dfrtp_1
*CAP
1 *1375:A 0.000538521
2 *1343:B 0.000125346
3 *1376:A 0
4 *1501:Q 0.000419524
5 *222:18 0.00109107
6 *222:10 0.00192376
7 *1375:A *226:16 0.00039966
8 *222:10 *226:16 1.18064e-05
9 *1372:B1 *222:10 1.08359e-05
10 *1399:A1 *222:18 1.98839e-05
11 *1399:A2 *222:18 0.000178847
12 *1399:B1 *222:18 0.000136951
13 *1429:B *222:10 0.000221365
14 *1500:RESET_B *1375:A 0.000123528
15 *1514:RESET_B *222:18 0.00189624
16 *43:24 *222:10 0.000711498
17 *95:109 *1343:B 0.000322236
18 *95:109 *222:18 0.00014849
19 *110:24 *1375:A 0.000121549
20 *129:10 *1343:B 7.18088e-05
21 *129:10 *222:18 7.66132e-05
22 *155:18 *222:18 5.58038e-05
23 *155:59 *1375:A 0.000269123
24 *155:59 *222:10 0.000168217
25 *159:16 *1375:A 0.000558934
26 *159:16 *222:10 0.000168224
27 *188:65 *1375:A 0.000560927
28 *203:12 *222:18 0.00206367
29 *209:39 *222:18 2.24195e-05
30 *214:46 *222:10 0.000384673
31 *220:89 *1343:B 0.000192269
32 *221:10 *1375:A 3.88819e-05
*RES
1 *1501:Q *222:10 25.1036 
2 *222:10 *222:18 36.9464 
3 *222:18 *1376:A 13.8 
4 *222:18 *1343:B 18.175 
5 *222:10 *1375:A 30.0143 
*END

*D_NET *223 0.0149698
*CONN
*I *1343:A I *D sky130_fd_sc_hd__and4_1
*I *1379:A I *D sky130_fd_sc_hd__inv_2
*I *1502:Q O *D sky130_fd_sc_hd__dfrtp_1
*CAP
1 *1343:A 6.63472e-05
2 *1379:A 0.00131999
3 *1502:Q 0
4 *223:25 0.00134298
5 *223:23 0.00133732
6 *223:4 0.00138067
7 *1383:A *223:25 0.000523779
8 *1439:B *1379:A 0.00117881
9 *1446:A *223:25 0.000372659
10 *1446:C *223:25 2.93936e-05
11 *1454:B1 *223:25 0.000768637
12 *44:12 *223:25 0.00369836
13 *95:109 *1343:A 0.0001686
14 *105:70 *223:25 0.000247485
15 *105:74 *223:25 0.00105133
16 *115:8 *223:25 0.000260006
17 *168:8 *1379:A 1.65169e-05
18 *180:31 *223:25 0.000298483
19 *180:44 *223:25 0.00016834
20 *205:10 *1343:A 0.0001686
21 *214:14 *223:25 0.000391367
22 *215:35 *223:23 0.000122814
23 *216:42 *223:23 5.72705e-05
*RES
1 *1502:Q *223:4 9.3 
2 *223:4 *1379:A 26.925 
3 *223:4 *223:23 10.6429 
4 *223:23 *223:25 46.125 
5 *223:25 *1343:A 20.55 
*END

*D_NET *224 0.0301092
*CONN
*I *1386:B I *D sky130_fd_sc_hd__and4_2
*I *1385:A1 I *D sky130_fd_sc_hd__a21oi_1
*I *1382:A I *D sky130_fd_sc_hd__nand2_1
*I *1349:A1 I *D sky130_fd_sc_hd__o31a_1
*I *1381:A I *D sky130_fd_sc_hd__or2_1
*I *1503:Q O *D sky130_fd_sc_hd__dfrtp_4
*CAP
1 *1386:B 0.00103776
2 *1385:A1 4.36033e-05
3 *1382:A 0.000138952
4 *1349:A1 0.000172932
5 *1381:A 4.70828e-05
6 *1503:Q 1.69531e-05
7 *224:65 0.000833139
8 *224:59 0.00148617
9 *224:53 0.00166602
10 *224:22 0.00259379
11 *224:14 0.00402106
12 *224:8 0.00178436
13 *224:53 *1339:A1 1.82712e-05
14 *224:59 *1385:B1 0.000123196
15 *1337:A *224:53 0.000361442
16 *1337:A *224:59 0.00169187
17 *1339:A2 *224:14 1.21258e-05
18 *1339:A2 *224:22 1.92789e-05
19 *1339:A2 *224:53 7.69588e-05
20 *1350:A *224:53 0.000206192
21 *1394:C *1386:B 0.000531286
22 *1406:C *224:59 9.32457e-06
23 *1406:C *224:65 0
24 *1420:B1 *1385:A1 5.33005e-05
25 *1431:A *224:65 0.000143816
26 *1455:A *1386:B 0.000178656
27 *1455:A *224:14 7.50766e-05
28 *1456:A *224:22 0.000343997
29 *1494:A *1349:A1 9.15842e-06
30 *1494:A *1382:A 0.000207468
31 *1498:D *1386:B 0.000155672
32 *1498:D *224:14 0.000384301
33 *1503:D *1381:A 5.41797e-06
34 *1503:RESET_B *1386:B 0
35 *1524:CLK *224:53 1.65169e-05
36 *1532:A *224:53 0
37 *40:16 *224:22 0.00181004
38 *53:12 *224:14 1.74903e-05
39 *53:12 *224:22 2.57487e-05
40 *66:14 *224:53 3.06878e-06
41 *80:12 *224:22 0.00264968
42 *81:14 *224:53 0.00010258
43 *97:12 *224:59 0.00017236
44 *97:18 *1349:A1 0
45 *97:18 *224:59 5.1588e-05
46 *97:18 *224:65 0.000908454
47 *104:16 *1349:A1 0
48 *105:20 *224:59 6.5396e-05
49 *105:20 *224:65 0.00015806
50 *108:18 *1381:A 0.000189951
51 *115:10 *224:59 0.00064166
52 *115:22 *224:59 0.000170511
53 *115:132 *224:53 0.000215986
54 *115:132 *224:59 0.000188118
55 *120:62 *224:14 0.000469772
56 *126:28 *224:59 0.000176806
57 *126:28 *224:65 0.000108889
58 *138:12 *1349:A1 0
59 *143:24 *224:65 0.00026746
60 *149:14 *224:8 5.33005e-05
61 *149:46 *1386:B 0.000119094
62 *157:10 *224:53 3.53762e-05
63 *157:16 *224:53 1.0095e-06
64 *168:55 *224:22 0.000472908
65 *179:10 *224:59 0.000144116
66 *179:24 *224:59 0.000110057
67 *179:110 *224:14 0.000100831
68 *179:131 *1386:B 0.000359158
69 *179:131 *224:14 0.000214348
70 *180:25 *1382:A 9.86486e-06
71 *180:25 *224:65 0.000400094
72 *180:31 *1349:A1 5.07263e-06
73 *190:109 *224:22 0.000219711
74 *201:14 *1381:A 0.000202898
75 *201:62 *1382:A 0.000439692
76 *201:62 *224:65 4.22609e-05
77 *207:122 *224:65 8.95024e-05
78 *218:96 *224:8 5.33005e-05
79 *221:37 *224:53 0.000177821
*RES
1 *1503:Q *224:8 14.3357 
2 *224:8 *224:14 17.4821 
3 *224:14 *224:22 49.5357 
4 *224:22 *1381:A 16.3536 
5 *224:14 *224:53 36.6607 
6 *224:53 *224:59 26.5893 
7 *224:59 *224:65 20.2857 
8 *224:65 *1349:A1 20.55 
9 *224:65 *1382:A 14.2643 
10 *224:59 *1385:A1 14.3357 
11 *224:8 *1386:B 33.8536 
*END

*D_NET *225 0.0264696
*CONN
*I *1385:B1 I *D sky130_fd_sc_hd__a21oi_1
*I *1386:A I *D sky130_fd_sc_hd__and4_2
*I *1346:C I *D sky130_fd_sc_hd__or4_1
*I *1504:Q O *D sky130_fd_sc_hd__dfrtp_1
*CAP
1 *1385:B1 0.000261788
2 *1386:A 0.000683193
3 *1346:C 0.000531799
4 *1504:Q 0.000841442
5 *225:35 0.00187498
6 *225:29 0.00194656
7 *225:12 0.00186623
8 *230:DIODE *1386:A 0.00014183
9 *1350:A *225:35 0.00102592
10 *1350:B *1386:A 0.000384706
11 *1350:B *225:35 0.000115561
12 *1394:C *1386:A 0.000467587
13 *1406:C *1385:B1 0.000378146
14 *1406:C *225:35 0.00069847
15 *1429:B *225:29 4.84159e-05
16 *1483:A *1346:C 2.28335e-05
17 *1504:D *225:12 9.41642e-05
18 *1504:RESET_B *225:12 0.00163442
19 *22:12 *1386:A 0.00107609
20 *38:12 *1346:C 0.00111831
21 *38:12 *225:29 0.000179097
22 *57:10 *1385:B1 8.26339e-05
23 *57:10 *225:29 0.00165389
24 *68:16 *1346:C 0.000860028
25 *68:16 *225:29 0.000186823
26 *97:59 *1385:B1 9.41642e-05
27 *97:59 *225:29 0.00102535
28 *103:24 *225:35 0.000885251
29 *105:20 *1385:B1 2.49942e-05
30 *115:22 *225:35 0.000559582
31 *126:28 *225:35 0.000112793
32 *134:47 *1386:A 0.000139907
33 *141:14 *225:35 6.27272e-06
34 *142:34 *225:35 8.00806e-05
35 *144:10 *225:35 7.83659e-05
36 *148:20 *225:12 0.000181803
37 *167:22 *225:12 6.57815e-05
38 *174:40 *1346:C 0.000269734
39 *176:43 *225:12 0.00119794
40 *179:10 *225:35 0.000133333
41 *179:24 *225:29 0.00012467
42 *180:58 *225:35 7.95696e-06
43 *180:125 *225:35 1.5929e-05
44 *194:24 *225:29 9.46047e-05
45 *199:12 *1386:A 0.000716556
46 *199:107 *1386:A 0.000116395
47 *200:63 *1346:C 0.000313138
48 *204:24 *1386:A 0.000150474
49 *204:24 *225:35 0.000289816
50 *207:16 *1386:A 6.68849e-05
51 *207:26 *1386:A 0.000324708
52 *211:61 *1386:A 5.06873e-05
53 *211:61 *225:35 5.28368e-06
54 *212:12 *225:35 0.000210481
55 *212:23 *225:35 7.96882e-05
56 *213:35 *1386:A 0.000279035
57 *214:34 *225:35 0.000469814
58 *217:26 *1346:C 0
59 *224:59 *1385:B1 0.000123196
*RES
1 *1504:Q *225:12 36.2464 
2 *225:12 *1346:C 31.4964 
3 *225:12 *225:29 23.1964 
4 *225:29 *225:35 40.8304 
5 *225:35 *1386:A 40.0589 
6 *225:29 *1385:B1 24.5321 
*END

*D_NET *226 0.0341907
*CONN
*I *1336:A1 I *D sky130_fd_sc_hd__a21oi_1
*I *1333:A1_N I *D sky130_fd_sc_hd__o2bb2a_1
*I *1327:A I *D sky130_fd_sc_hd__and3_2
*I *1339:A1 I *D sky130_fd_sc_hd__a21oi_1
*I *1338:A1 I *D sky130_fd_sc_hd__a21oi_1
*I *1522:Q O *D sky130_fd_sc_hd__dfrtp_4
*CAP
1 *1336:A1 0.00128034
2 *1333:A1_N 0.00080674
3 *1327:A 0.000196085
4 *1339:A1 0.00043748
5 *1338:A1 9.75628e-05
6 *1522:Q 1.49752e-05
7 *226:56 0.00282233
8 *226:33 0.00420352
9 *226:27 0.00211137
10 *226:16 0.00170837
11 *226:6 0.00274128
12 *1333:B2 *1333:A1_N 0.000103326
13 *1335:A *226:6 5.33005e-05
14 *1335:A *226:16 0.000175892
15 *1338:A2 *1338:A1 5.33005e-05
16 *1339:A2 *1339:A1 0.000351912
17 *1372:B1 *226:16 0
18 *1375:A *226:16 0.00039966
19 *1400:B *1333:A1_N 7.72758e-05
20 *1426:A *1339:A1 0.000109292
21 *1459:A1 *1333:A1_N 9.41642e-05
22 *1459:A2 *1333:A1_N 0.00204095
23 *1497:RESET_B *226:27 4.21517e-05
24 *1498:CLK *226:56 0.000146638
25 *1500:RESET_B *226:16 0.000121814
26 *1503:RESET_B *226:56 8.85664e-07
27 *1520:RESET_B *1327:A 0
28 *1532:A *1339:A1 8.64743e-05
29 *1532:A *226:56 4.20514e-05
30 *30:8 *1338:A1 3.15318e-05
31 *53:12 *1339:A1 0.000181114
32 *61:14 *226:16 0.000532498
33 *87:24 *1336:A1 9.62851e-05
34 *89:12 *1333:A1_N 5.52302e-05
35 *97:59 *1336:A1 0.000168496
36 *101:14 *1336:A1 5.29557e-05
37 *110:24 *226:16 0.000133769
38 *120:62 *1339:A1 2.11419e-05
39 *131:26 *1336:A1 0.000169202
40 *139:14 *226:56 0.000110841
41 *143:20 *1336:A1 0.000916549
42 *147:84 *1333:A1_N 0.00014101
43 *155:59 *226:16 0.000426375
44 *158:8 *226:16 0.000316168
45 *174:40 *1336:A1 0.00123379
46 *181:31 *226:6 4.08637e-05
47 *181:31 *226:16 0.000177591
48 *187:111 *1338:A1 0.000304394
49 *187:145 *1339:A1 0.00028401
50 *187:145 *226:56 0.000232966
51 *187:158 *226:56 0.00166601
52 *188:65 *1333:A1_N 2.60785e-05
53 *188:65 *226:16 0.000147585
54 *188:65 *226:27 9.97149e-05
55 *189:95 *1338:A1 6.26177e-05
56 *191:28 *226:16 0.000297553
57 *192:14 *1327:A 0.000414229
58 *199:46 *226:33 0.000854165
59 *199:107 *226:33 0.000431186
60 *203:45 *1333:A1_N 0.00108322
61 *206:16 *1333:A1_N 0.000159157
62 *206:16 *226:27 1.62539e-05
63 *206:24 *226:16 0.000751563
64 *206:24 *226:27 0.000112798
65 *206:30 *1336:A1 0.00169227
66 *207:79 *226:56 0.000100831
67 *208:61 *1339:A1 0.000138528
68 *218:70 *1333:A1_N 0.000114339
69 *218:70 *226:27 9.25014e-06
70 *218:82 *1339:A1 4.46186e-06
71 *218:82 *226:56 3.28967e-05
72 *222:10 *226:16 1.18064e-05
73 *224:53 *1339:A1 1.82712e-05
*RES
1 *1522:Q *226:6 9.83571 
2 *226:6 *226:16 38.3214 
3 *226:16 *1338:A1 16.8 
4 *226:16 *226:27 3.76786 
5 *226:27 *226:33 23.5 
6 *226:33 *1339:A1 24.4964 
7 *226:33 *226:56 46.4821 
8 *226:56 *1327:A 19.0857 
9 *226:27 *1333:A1_N 41.4473 
10 *226:6 *1336:A1 49.6393 
*END
