*SPEF "ieee 1481-1999"
*DESIGN "ZeroToFiveCounter"
*DATE "12:24:28 Monday May 19, 2025"
*VENDOR "The OpenROAD Project"
*PROGRAM "OpenROAD"
*VERSION "b16bda7e82721d10566ff7e2b68f1ff0be9f9e38"
*DESIGN_FLOW "NAME_SCOPE LOCAL" "PIN_CAP NONE"
*DIVIDER /
*DELIMITER :
*BUS_DELIMITER []
*T_UNIT 1 NS
*C_UNIT 1 PF
*R_UNIT 1 OHM
*L_UNIT 1 HENRY

*NAME_MAP
*3 net10
*4 net11
*5 net12
*6 net13
*7 net14
*8 net15
*9 net16
*10 net9
*11 clk
*12 rst
*13 seg[0]
*14 seg[1]
*15 seg[2]
*16 seg[3]
*17 seg[4]
*18 seg[5]
*19 seg[6]
*20 _000_
*21 _001_
*22 _002_
*23 _003_
*24 _004_
*25 _005_
*26 _006_
*27 _007_
*28 _008_
*29 _009_
*30 _010_
*31 _011_
*32 _012_
*33 _013_
*34 _014_
*35 _015_
*36 _016_
*37 _017_
*38 _018_
*39 _019_
*40 _020_
*41 _021_
*42 _022_
*43 _023_
*44 _024_
*45 _025_
*46 _026_
*47 _027_
*48 _028_
*49 _029_
*50 _030_
*51 _031_
*52 _032_
*53 _033_
*54 _034_
*55 _035_
*56 _036_
*57 _037_
*58 _038_
*59 _039_
*60 _040_
*61 _041_
*62 _042_
*63 _043_
*64 _044_
*65 _045_
*66 _046_
*67 _047_
*68 _048_
*69 _049_
*70 _050_
*71 _051_
*72 _052_
*73 _053_
*74 _054_
*75 _055_
*76 _056_
*77 _057_
*78 _058_
*79 _059_
*80 _060_
*81 _061_
*82 _062_
*83 _063_
*84 _064_
*85 _065_
*86 _066_
*87 _067_
*88 _068_
*89 _069_
*90 _070_
*91 _071_
*92 _072_
*93 _073_
*94 _074_
*95 _075_
*96 _076_
*97 _077_
*98 _078_
*99 _079_
*100 _080_
*101 _081_
*102 _082_
*103 _083_
*104 _084_
*105 _085_
*106 _086_
*107 _087_
*108 _088_
*109 _089_
*110 _090_
*111 _091_
*112 _092_
*113 _093_
*114 _094_
*115 _095_
*116 _096_
*117 _097_
*118 _098_
*119 _099_
*120 _100_
*121 _101_
*122 _102_
*123 _103_
*124 _104_
*125 _105_
*126 _106_
*127 _107_
*128 _108_
*129 _109_
*130 _110_
*131 _111_
*132 _112_
*133 _113_
*134 _114_
*135 _115_
*136 _116_
*137 _117_
*138 _118_
*139 _119_
*140 _120_
*141 _121_
*142 _122_
*143 _123_
*144 _124_
*145 _125_
*146 _126_
*147 _127_
*148 _128_
*149 _129_
*150 _130_
*151 _131_
*152 _132_
*153 _133_
*154 _134_
*155 _135_
*156 _136_
*157 _137_
*158 _138_
*159 _139_
*160 _140_
*161 _141_
*162 _142_
*163 _143_
*164 _144_
*165 _145_
*166 _146_
*167 _147_
*168 _148_
*169 _149_
*170 _150_
*171 _151_
*172 _152_
*173 _153_
*174 _154_
*175 _155_
*176 _156_
*177 _157_
*178 _158_
*179 _159_
*180 _160_
*181 _161_
*182 clknet_0_clk
*183 clknet_2_0__leaf_clk
*184 clknet_2_1__leaf_clk
*185 clknet_2_2__leaf_clk
*186 clknet_2_3__leaf_clk
*187 decoder\.digit\[0\]
*188 decoder\.digit\[1\]
*189 decoder\.digit\[2\]
*190 decoder\.digit\[3\]
*191 net1
*192 net2
*193 net3
*194 net4
*195 net5
*196 net6
*197 net7
*198 net8
*199 one_second_counter\[0\]
*200 one_second_counter\[10\]
*201 one_second_counter\[11\]
*202 one_second_counter\[12\]
*203 one_second_counter\[13\]
*204 one_second_counter\[14\]
*205 one_second_counter\[15\]
*206 one_second_counter\[16\]
*207 one_second_counter\[17\]
*208 one_second_counter\[18\]
*209 one_second_counter\[19\]
*210 one_second_counter\[1\]
*211 one_second_counter\[20\]
*212 one_second_counter\[21\]
*213 one_second_counter\[22\]
*214 one_second_counter\[23\]
*215 one_second_counter\[24\]
*216 one_second_counter\[25\]
*217 one_second_counter\[26\]
*218 one_second_counter\[2\]
*219 one_second_counter\[3\]
*220 one_second_counter\[4\]
*221 one_second_counter\[5\]
*222 one_second_counter\[6\]
*223 one_second_counter\[7\]
*224 one_second_counter\[8\]
*225 one_second_counter\[9\]
*226 one_second_enable
*227 ANTENNA_1
*228 ANTENNA_10
*229 ANTENNA_11
*230 ANTENNA_2
*231 ANTENNA_3
*232 ANTENNA_4
*233 ANTENNA_5
*234 ANTENNA_6
*235 ANTENNA_7
*236 ANTENNA_8
*237 ANTENNA_9
*238 FILLER_0_0_109
*239 FILLER_0_0_113
*240 FILLER_0_0_125
*241 FILLER_0_0_137
*242 FILLER_0_0_141
*243 FILLER_0_0_149
*244 FILLER_0_0_15
*245 FILLER_0_0_155
*246 FILLER_0_0_167
*247 FILLER_0_0_169
*248 FILLER_0_0_181
*249 FILLER_0_0_193
*250 FILLER_0_0_197
*251 FILLER_0_0_209
*252 FILLER_0_0_217
*253 FILLER_0_0_222
*254 FILLER_0_0_225
*255 FILLER_0_0_229
*256 FILLER_0_0_27
*257 FILLER_0_0_29
*258 FILLER_0_0_3
*259 FILLER_0_0_41
*260 FILLER_0_0_53
*261 FILLER_0_0_57
*262 FILLER_0_0_69
*263 FILLER_0_0_73
*264 FILLER_0_0_83
*265 FILLER_0_0_85
*266 FILLER_0_0_97
*267 FILLER_0_10_102
*268 FILLER_0_10_114
*269 FILLER_0_10_126
*270 FILLER_0_10_138
*271 FILLER_0_10_141
*272 FILLER_0_10_15
*273 FILLER_0_10_153
*274 FILLER_0_10_165
*275 FILLER_0_10_183
*276 FILLER_0_10_195
*277 FILLER_0_10_197
*278 FILLER_0_10_209
*279 FILLER_0_10_221
*280 FILLER_0_10_229
*281 FILLER_0_10_27
*282 FILLER_0_10_3
*283 FILLER_0_10_32
*284 FILLER_0_10_44
*285 FILLER_0_10_56
*286 FILLER_0_10_60
*287 FILLER_0_10_66
*288 FILLER_0_10_78
*289 FILLER_0_10_90
*290 FILLER_0_11_109
*291 FILLER_0_11_113
*292 FILLER_0_11_120
*293 FILLER_0_11_132
*294 FILLER_0_11_138
*295 FILLER_0_11_142
*296 FILLER_0_11_15
*297 FILLER_0_11_154
*298 FILLER_0_11_166
*299 FILLER_0_11_169
*300 FILLER_0_11_181
*301 FILLER_0_11_190
*302 FILLER_0_11_202
*303 FILLER_0_11_214
*304 FILLER_0_11_223
*305 FILLER_0_11_225
*306 FILLER_0_11_27
*307 FILLER_0_11_3
*308 FILLER_0_11_39
*309 FILLER_0_11_51
*310 FILLER_0_11_55
*311 FILLER_0_11_57
*312 FILLER_0_11_75
*313 FILLER_0_11_83
*314 FILLER_0_12_109
*315 FILLER_0_12_124
*316 FILLER_0_12_128
*317 FILLER_0_12_141
*318 FILLER_0_12_153
*319 FILLER_0_12_165
*320 FILLER_0_12_177
*321 FILLER_0_12_18
*322 FILLER_0_12_189
*323 FILLER_0_12_195
*324 FILLER_0_12_197
*325 FILLER_0_12_209
*326 FILLER_0_12_221
*327 FILLER_0_12_26
*328 FILLER_0_12_29
*329 FILLER_0_12_41
*330 FILLER_0_12_49
*331 FILLER_0_12_53
*332 FILLER_0_12_6
*333 FILLER_0_12_60
*334 FILLER_0_12_72
*335 FILLER_0_12_85
*336 FILLER_0_12_97
*337 FILLER_0_13_109
*338 FILLER_0_13_113
*339 FILLER_0_13_125
*340 FILLER_0_13_137
*341 FILLER_0_13_141
*342 FILLER_0_13_145
*343 FILLER_0_13_149
*344 FILLER_0_13_15
*345 FILLER_0_13_161
*346 FILLER_0_13_167
*347 FILLER_0_13_169
*348 FILLER_0_13_181
*349 FILLER_0_13_193
*350 FILLER_0_13_205
*351 FILLER_0_13_21
*352 FILLER_0_13_217
*353 FILLER_0_13_222
*354 FILLER_0_13_225
*355 FILLER_0_13_229
*356 FILLER_0_13_28
*357 FILLER_0_13_3
*358 FILLER_0_13_40
*359 FILLER_0_13_52
*360 FILLER_0_13_57
*361 FILLER_0_13_79
*362 FILLER_0_13_85
*363 FILLER_0_13_97
*364 FILLER_0_14_109
*365 FILLER_0_14_121
*366 FILLER_0_14_129
*367 FILLER_0_14_136
*368 FILLER_0_14_15
*369 FILLER_0_14_162
*370 FILLER_0_14_166
*371 FILLER_0_14_171
*372 FILLER_0_14_183
*373 FILLER_0_14_195
*374 FILLER_0_14_197
*375 FILLER_0_14_209
*376 FILLER_0_14_221
*377 FILLER_0_14_27
*378 FILLER_0_14_29
*379 FILLER_0_14_3
*380 FILLER_0_14_41
*381 FILLER_0_14_53
*382 FILLER_0_14_59
*383 FILLER_0_14_81
*384 FILLER_0_14_85
*385 FILLER_0_14_97
*386 FILLER_0_15_111
*387 FILLER_0_15_113
*388 FILLER_0_15_125
*389 FILLER_0_15_137
*390 FILLER_0_15_149
*391 FILLER_0_15_15
*392 FILLER_0_15_161
*393 FILLER_0_15_167
*394 FILLER_0_15_169
*395 FILLER_0_15_181
*396 FILLER_0_15_19
*397 FILLER_0_15_193
*398 FILLER_0_15_205
*399 FILLER_0_15_217
*400 FILLER_0_15_223
*401 FILLER_0_15_225
*402 FILLER_0_15_229
*403 FILLER_0_15_23
*404 FILLER_0_15_3
*405 FILLER_0_15_35
*406 FILLER_0_15_47
*407 FILLER_0_15_55
*408 FILLER_0_15_57
*409 FILLER_0_15_61
*410 FILLER_0_15_85
*411 FILLER_0_15_97
*412 FILLER_0_16_113
*413 FILLER_0_16_125
*414 FILLER_0_16_13
*415 FILLER_0_16_139
*416 FILLER_0_16_141
*417 FILLER_0_16_153
*418 FILLER_0_16_161
*419 FILLER_0_16_167
*420 FILLER_0_16_179
*421 FILLER_0_16_191
*422 FILLER_0_16_195
*423 FILLER_0_16_197
*424 FILLER_0_16_209
*425 FILLER_0_16_25
*426 FILLER_0_16_29
*427 FILLER_0_16_3
*428 FILLER_0_16_40
*429 FILLER_0_16_48
*430 FILLER_0_16_70
*431 FILLER_0_16_78
*432 FILLER_0_16_85
*433 FILLER_0_16_9
*434 FILLER_0_17_101
*435 FILLER_0_17_108
*436 FILLER_0_17_118
*437 FILLER_0_17_130
*438 FILLER_0_17_142
*439 FILLER_0_17_15
*440 FILLER_0_17_154
*441 FILLER_0_17_159
*442 FILLER_0_17_167
*443 FILLER_0_17_169
*444 FILLER_0_17_181
*445 FILLER_0_17_193
*446 FILLER_0_17_205
*447 FILLER_0_17_217
*448 FILLER_0_17_223
*449 FILLER_0_17_225
*450 FILLER_0_17_229
*451 FILLER_0_17_27
*452 FILLER_0_17_3
*453 FILLER_0_17_39
*454 FILLER_0_17_51
*455 FILLER_0_17_55
*456 FILLER_0_17_57
*457 FILLER_0_17_69
*458 FILLER_0_17_81
*459 FILLER_0_17_93
*460 FILLER_0_18_105
*461 FILLER_0_18_128
*462 FILLER_0_18_141
*463 FILLER_0_18_15
*464 FILLER_0_18_156
*465 FILLER_0_18_169
*466 FILLER_0_18_181
*467 FILLER_0_18_193
*468 FILLER_0_18_197
*469 FILLER_0_18_209
*470 FILLER_0_18_221
*471 FILLER_0_18_27
*472 FILLER_0_18_29
*473 FILLER_0_18_3
*474 FILLER_0_18_41
*475 FILLER_0_18_53
*476 FILLER_0_18_85
*477 FILLER_0_18_97
*478 FILLER_0_19_104
*479 FILLER_0_19_113
*480 FILLER_0_19_125
*481 FILLER_0_19_133
*482 FILLER_0_19_158
*483 FILLER_0_19_16
*484 FILLER_0_19_166
*485 FILLER_0_19_169
*486 FILLER_0_19_181
*487 FILLER_0_19_193
*488 FILLER_0_19_205
*489 FILLER_0_19_217
*490 FILLER_0_19_223
*491 FILLER_0_19_225
*492 FILLER_0_19_24
*493 FILLER_0_19_3
*494 FILLER_0_19_31
*495 FILLER_0_19_43
*496 FILLER_0_19_55
*497 FILLER_0_19_80
*498 FILLER_0_19_9
*499 FILLER_0_19_92
*500 FILLER_0_1_10
*501 FILLER_0_1_103
*502 FILLER_0_1_108
*503 FILLER_0_1_113
*504 FILLER_0_1_122
*505 FILLER_0_1_134
*506 FILLER_0_1_146
*507 FILLER_0_1_154
*508 FILLER_0_1_160
*509 FILLER_0_1_169
*510 FILLER_0_1_181
*511 FILLER_0_1_185
*512 FILLER_0_1_193
*513 FILLER_0_1_201
*514 FILLER_0_1_213
*515 FILLER_0_1_22
*516 FILLER_0_1_221
*517 FILLER_0_1_225
*518 FILLER_0_1_3
*519 FILLER_0_1_49
*520 FILLER_0_1_55
*521 FILLER_0_1_57
*522 FILLER_0_1_65
*523 FILLER_0_1_91
*524 FILLER_0_20_113
*525 FILLER_0_20_125
*526 FILLER_0_20_137
*527 FILLER_0_20_141
*528 FILLER_0_20_145
*529 FILLER_0_20_15
*530 FILLER_0_20_155
*531 FILLER_0_20_162
*532 FILLER_0_20_174
*533 FILLER_0_20_186
*534 FILLER_0_20_194
*535 FILLER_0_20_197
*536 FILLER_0_20_205
*537 FILLER_0_20_27
*538 FILLER_0_20_29
*539 FILLER_0_20_3
*540 FILLER_0_20_41
*541 FILLER_0_20_53
*542 FILLER_0_20_65
*543 FILLER_0_20_73
*544 FILLER_0_20_78
*545 FILLER_0_20_85
*546 FILLER_0_20_91
*547 FILLER_0_21_102
*548 FILLER_0_21_110
*549 FILLER_0_21_136
*550 FILLER_0_21_144
*551 FILLER_0_21_15
*552 FILLER_0_21_169
*553 FILLER_0_21_173
*554 FILLER_0_21_180
*555 FILLER_0_21_192
*556 FILLER_0_21_204
*557 FILLER_0_21_216
*558 FILLER_0_21_225
*559 FILLER_0_21_23
*560 FILLER_0_21_3
*561 FILLER_0_21_30
*562 FILLER_0_21_42
*563 FILLER_0_21_48
*564 FILLER_0_21_78
*565 FILLER_0_21_90
*566 FILLER_0_22_104
*567 FILLER_0_22_116
*568 FILLER_0_22_128
*569 FILLER_0_22_135
*570 FILLER_0_22_139
*571 FILLER_0_22_141
*572 FILLER_0_22_15
*573 FILLER_0_22_153
*574 FILLER_0_22_165
*575 FILLER_0_22_177
*576 FILLER_0_22_189
*577 FILLER_0_22_195
*578 FILLER_0_22_197
*579 FILLER_0_22_209
*580 FILLER_0_22_221
*581 FILLER_0_22_27
*582 FILLER_0_22_29
*583 FILLER_0_22_3
*584 FILLER_0_22_41
*585 FILLER_0_22_46
*586 FILLER_0_22_80
*587 FILLER_0_22_85
*588 FILLER_0_22_97
*589 FILLER_0_23_101
*590 FILLER_0_23_107
*591 FILLER_0_23_111
*592 FILLER_0_23_113
*593 FILLER_0_23_125
*594 FILLER_0_23_13
*595 FILLER_0_23_137
*596 FILLER_0_23_149
*597 FILLER_0_23_157
*598 FILLER_0_23_162
*599 FILLER_0_23_169
*600 FILLER_0_23_181
*601 FILLER_0_23_190
*602 FILLER_0_23_21
*603 FILLER_0_23_215
*604 FILLER_0_23_223
*605 FILLER_0_23_225
*606 FILLER_0_23_229
*607 FILLER_0_23_3
*608 FILLER_0_23_50
*609 FILLER_0_23_60
*610 FILLER_0_23_72
*611 FILLER_0_23_9
*612 FILLER_0_24_106
*613 FILLER_0_24_112
*614 FILLER_0_24_117
*615 FILLER_0_24_129
*616 FILLER_0_24_141
*617 FILLER_0_24_153
*618 FILLER_0_24_165
*619 FILLER_0_24_177
*620 FILLER_0_24_189
*621 FILLER_0_24_195
*622 FILLER_0_24_197
*623 FILLER_0_24_209
*624 FILLER_0_24_220
*625 FILLER_0_24_232
*626 FILLER_0_24_26
*627 FILLER_0_24_29
*628 FILLER_0_24_33
*629 FILLER_0_24_45
*630 FILLER_0_24_57
*631 FILLER_0_24_69
*632 FILLER_0_24_81
*633 FILLER_0_24_85
*634 FILLER_0_24_98
*635 FILLER_0_25_111
*636 FILLER_0_25_113
*637 FILLER_0_25_125
*638 FILLER_0_25_149
*639 FILLER_0_25_15
*640 FILLER_0_25_153
*641 FILLER_0_25_164
*642 FILLER_0_25_169
*643 FILLER_0_25_181
*644 FILLER_0_25_193
*645 FILLER_0_25_205
*646 FILLER_0_25_213
*647 FILLER_0_25_218
*648 FILLER_0_25_225
*649 FILLER_0_25_229
*650 FILLER_0_25_27
*651 FILLER_0_25_3
*652 FILLER_0_25_39
*653 FILLER_0_25_51
*654 FILLER_0_25_55
*655 FILLER_0_25_57
*656 FILLER_0_25_63
*657 FILLER_0_25_75
*658 FILLER_0_25_87
*659 FILLER_0_25_99
*660 FILLER_0_26_104
*661 FILLER_0_26_116
*662 FILLER_0_26_122
*663 FILLER_0_26_132
*664 FILLER_0_26_144
*665 FILLER_0_26_15
*666 FILLER_0_26_172
*667 FILLER_0_26_184
*668 FILLER_0_26_197
*669 FILLER_0_26_209
*670 FILLER_0_26_221
*671 FILLER_0_26_27
*672 FILLER_0_26_29
*673 FILLER_0_26_3
*674 FILLER_0_26_41
*675 FILLER_0_26_53
*676 FILLER_0_26_65
*677 FILLER_0_26_77
*678 FILLER_0_26_83
*679 FILLER_0_26_85
*680 FILLER_0_26_92
*681 FILLER_0_27_101
*682 FILLER_0_27_11
*683 FILLER_0_27_111
*684 FILLER_0_27_118
*685 FILLER_0_27_162
*686 FILLER_0_27_172
*687 FILLER_0_27_176
*688 FILLER_0_27_180
*689 FILLER_0_27_192
*690 FILLER_0_27_204
*691 FILLER_0_27_216
*692 FILLER_0_27_23
*693 FILLER_0_27_232
*694 FILLER_0_27_3
*695 FILLER_0_27_35
*696 FILLER_0_27_39
*697 FILLER_0_27_48
*698 FILLER_0_27_57
*699 FILLER_0_27_69
*700 FILLER_0_27_81
*701 FILLER_0_27_93
*702 FILLER_0_28_103
*703 FILLER_0_28_130
*704 FILLER_0_28_134
*705 FILLER_0_28_141
*706 FILLER_0_28_15
*707 FILLER_0_28_153
*708 FILLER_0_28_165
*709 FILLER_0_28_177
*710 FILLER_0_28_189
*711 FILLER_0_28_195
*712 FILLER_0_28_197
*713 FILLER_0_28_209
*714 FILLER_0_28_221
*715 FILLER_0_28_229
*716 FILLER_0_28_27
*717 FILLER_0_28_29
*718 FILLER_0_28_3
*719 FILLER_0_28_41
*720 FILLER_0_28_53
*721 FILLER_0_28_65
*722 FILLER_0_28_77
*723 FILLER_0_28_83
*724 FILLER_0_28_85
*725 FILLER_0_28_97
*726 FILLER_0_29_111
*727 FILLER_0_29_113
*728 FILLER_0_29_125
*729 FILLER_0_29_137
*730 FILLER_0_29_14
*731 FILLER_0_29_149
*732 FILLER_0_29_161
*733 FILLER_0_29_167
*734 FILLER_0_29_169
*735 FILLER_0_29_181
*736 FILLER_0_29_196
*737 FILLER_0_29_208
*738 FILLER_0_29_220
*739 FILLER_0_29_225
*740 FILLER_0_29_26
*741 FILLER_0_29_32
*742 FILLER_0_29_53
*743 FILLER_0_29_57
*744 FILLER_0_29_61
*745 FILLER_0_29_65
*746 FILLER_0_29_75
*747 FILLER_0_29_87
*748 FILLER_0_29_99
*749 FILLER_0_2_101
*750 FILLER_0_2_113
*751 FILLER_0_2_125
*752 FILLER_0_2_137
*753 FILLER_0_2_141
*754 FILLER_0_2_149
*755 FILLER_0_2_161
*756 FILLER_0_2_17
*757 FILLER_0_2_173
*758 FILLER_0_2_185
*759 FILLER_0_2_193
*760 FILLER_0_2_197
*761 FILLER_0_2_209
*762 FILLER_0_2_221
*763 FILLER_0_2_24
*764 FILLER_0_2_29
*765 FILLER_0_2_3
*766 FILLER_0_2_33
*767 FILLER_0_2_37
*768 FILLER_0_2_48
*769 FILLER_0_2_56
*770 FILLER_0_2_83
*771 FILLER_0_2_89
*772 FILLER_0_30_10
*773 FILLER_0_30_105
*774 FILLER_0_30_112
*775 FILLER_0_30_124
*776 FILLER_0_30_136
*777 FILLER_0_30_141
*778 FILLER_0_30_153
*779 FILLER_0_30_165
*780 FILLER_0_30_177
*781 FILLER_0_30_189
*782 FILLER_0_30_195
*783 FILLER_0_30_197
*784 FILLER_0_30_208
*785 FILLER_0_30_212
*786 FILLER_0_30_219
*787 FILLER_0_30_22
*788 FILLER_0_30_227
*789 FILLER_0_30_3
*790 FILLER_0_30_52
*791 FILLER_0_30_58
*792 FILLER_0_30_79
*793 FILLER_0_30_83
*794 FILLER_0_30_85
*795 FILLER_0_30_97
*796 FILLER_0_31_107
*797 FILLER_0_31_111
*798 FILLER_0_31_113
*799 FILLER_0_31_128
*800 FILLER_0_31_137
*801 FILLER_0_31_149
*802 FILLER_0_31_15
*803 FILLER_0_31_157
*804 FILLER_0_31_167
*805 FILLER_0_31_169
*806 FILLER_0_31_181
*807 FILLER_0_31_189
*808 FILLER_0_31_201
*809 FILLER_0_31_213
*810 FILLER_0_31_221
*811 FILLER_0_31_225
*812 FILLER_0_31_27
*813 FILLER_0_31_3
*814 FILLER_0_31_47
*815 FILLER_0_31_55
*816 FILLER_0_31_57
*817 FILLER_0_31_65
*818 FILLER_0_31_71
*819 FILLER_0_31_83
*820 FILLER_0_31_95
*821 FILLER_0_32_109
*822 FILLER_0_32_133
*823 FILLER_0_32_139
*824 FILLER_0_32_141
*825 FILLER_0_32_15
*826 FILLER_0_32_153
*827 FILLER_0_32_165
*828 FILLER_0_32_177
*829 FILLER_0_32_189
*830 FILLER_0_32_195
*831 FILLER_0_32_197
*832 FILLER_0_32_209
*833 FILLER_0_32_217
*834 FILLER_0_32_222
*835 FILLER_0_32_230
*836 FILLER_0_32_27
*837 FILLER_0_32_29
*838 FILLER_0_32_3
*839 FILLER_0_32_35
*840 FILLER_0_32_39
*841 FILLER_0_32_51
*842 FILLER_0_32_59
*843 FILLER_0_32_64
*844 FILLER_0_32_76
*845 FILLER_0_32_85
*846 FILLER_0_32_97
*847 FILLER_0_33_104
*848 FILLER_0_33_113
*849 FILLER_0_33_128
*850 FILLER_0_33_140
*851 FILLER_0_33_15
*852 FILLER_0_33_152
*853 FILLER_0_33_164
*854 FILLER_0_33_172
*855 FILLER_0_33_184
*856 FILLER_0_33_196
*857 FILLER_0_33_208
*858 FILLER_0_33_220
*859 FILLER_0_33_225
*860 FILLER_0_33_229
*861 FILLER_0_33_27
*862 FILLER_0_33_3
*863 FILLER_0_33_39
*864 FILLER_0_33_51
*865 FILLER_0_33_55
*866 FILLER_0_33_57
*867 FILLER_0_33_69
*868 FILLER_0_33_81
*869 FILLER_0_33_93
*870 FILLER_0_34_106
*871 FILLER_0_34_110
*872 FILLER_0_34_138
*873 FILLER_0_34_141
*874 FILLER_0_34_15
*875 FILLER_0_34_153
*876 FILLER_0_34_165
*877 FILLER_0_34_177
*878 FILLER_0_34_189
*879 FILLER_0_34_195
*880 FILLER_0_34_202
*881 FILLER_0_34_214
*882 FILLER_0_34_226
*883 FILLER_0_34_232
*884 FILLER_0_34_27
*885 FILLER_0_34_29
*886 FILLER_0_34_3
*887 FILLER_0_34_41
*888 FILLER_0_34_49
*889 FILLER_0_34_55
*890 FILLER_0_34_67
*891 FILLER_0_34_80
*892 FILLER_0_35_109
*893 FILLER_0_35_11
*894 FILLER_0_35_113
*895 FILLER_0_35_125
*896 FILLER_0_35_137
*897 FILLER_0_35_141
*898 FILLER_0_35_153
*899 FILLER_0_35_165
*900 FILLER_0_35_169
*901 FILLER_0_35_181
*902 FILLER_0_35_193
*903 FILLER_0_35_197
*904 FILLER_0_35_209
*905 FILLER_0_35_221
*906 FILLER_0_35_225
*907 FILLER_0_35_229
*908 FILLER_0_35_23
*909 FILLER_0_35_27
*910 FILLER_0_35_29
*911 FILLER_0_35_3
*912 FILLER_0_35_41
*913 FILLER_0_35_53
*914 FILLER_0_35_57
*915 FILLER_0_35_69
*916 FILLER_0_35_73
*917 FILLER_0_35_77
*918 FILLER_0_35_83
*919 FILLER_0_35_85
*920 FILLER_0_35_97
*921 FILLER_0_3_105
*922 FILLER_0_3_111
*923 FILLER_0_3_119
*924 FILLER_0_3_131
*925 FILLER_0_3_139
*926 FILLER_0_3_144
*927 FILLER_0_3_15
*928 FILLER_0_3_159
*929 FILLER_0_3_167
*930 FILLER_0_3_169
*931 FILLER_0_3_181
*932 FILLER_0_3_193
*933 FILLER_0_3_208
*934 FILLER_0_3_217
*935 FILLER_0_3_223
*936 FILLER_0_3_225
*937 FILLER_0_3_229
*938 FILLER_0_3_3
*939 FILLER_0_3_44
*940 FILLER_0_3_57
*941 FILLER_0_3_69
*942 FILLER_0_3_81
*943 FILLER_0_3_93
*944 FILLER_0_4_109
*945 FILLER_0_4_11
*946 FILLER_0_4_121
*947 FILLER_0_4_133
*948 FILLER_0_4_139
*949 FILLER_0_4_141
*950 FILLER_0_4_153
*951 FILLER_0_4_165
*952 FILLER_0_4_177
*953 FILLER_0_4_189
*954 FILLER_0_4_195
*955 FILLER_0_4_197
*956 FILLER_0_4_209
*957 FILLER_0_4_217
*958 FILLER_0_4_22
*959 FILLER_0_4_223
*960 FILLER_0_4_231
*961 FILLER_0_4_3
*962 FILLER_0_4_36
*963 FILLER_0_4_40
*964 FILLER_0_4_45
*965 FILLER_0_4_57
*966 FILLER_0_4_69
*967 FILLER_0_4_7
*968 FILLER_0_4_81
*969 FILLER_0_4_85
*970 FILLER_0_4_93
*971 FILLER_0_4_97
*972 FILLER_0_5_110
*973 FILLER_0_5_113
*974 FILLER_0_5_125
*975 FILLER_0_5_137
*976 FILLER_0_5_149
*977 FILLER_0_5_15
*978 FILLER_0_5_161
*979 FILLER_0_5_167
*980 FILLER_0_5_169
*981 FILLER_0_5_181
*982 FILLER_0_5_189
*983 FILLER_0_5_196
*984 FILLER_0_5_208
*985 FILLER_0_5_220
*986 FILLER_0_5_225
*987 FILLER_0_5_229
*988 FILLER_0_5_27
*989 FILLER_0_5_3
*990 FILLER_0_5_39
*991 FILLER_0_5_51
*992 FILLER_0_5_55
*993 FILLER_0_5_62
*994 FILLER_0_5_74
*995 FILLER_0_5_86
*996 FILLER_0_5_98
*997 FILLER_0_6_108
*998 FILLER_0_6_120
*999 FILLER_0_6_132
*1000 FILLER_0_6_14
*1001 FILLER_0_6_141
*1002 FILLER_0_6_153
*1003 FILLER_0_6_165
*1004 FILLER_0_6_177
*1005 FILLER_0_6_189
*1006 FILLER_0_6_195
*1007 FILLER_0_6_197
*1008 FILLER_0_6_209
*1009 FILLER_0_6_218
*1010 FILLER_0_6_230
*1011 FILLER_0_6_26
*1012 FILLER_0_6_3
*1013 FILLER_0_6_32
*1014 FILLER_0_6_43
*1015 FILLER_0_6_55
*1016 FILLER_0_6_67
*1017 FILLER_0_6_79
*1018 FILLER_0_6_83
*1019 FILLER_0_6_85
*1020 FILLER_0_6_92
*1021 FILLER_0_7_105
*1022 FILLER_0_7_111
*1023 FILLER_0_7_113
*1024 FILLER_0_7_125
*1025 FILLER_0_7_137
*1026 FILLER_0_7_145
*1027 FILLER_0_7_149
*1028 FILLER_0_7_15
*1029 FILLER_0_7_161
*1030 FILLER_0_7_167
*1031 FILLER_0_7_173
*1032 FILLER_0_7_185
*1033 FILLER_0_7_197
*1034 FILLER_0_7_209
*1035 FILLER_0_7_221
*1036 FILLER_0_7_225
*1037 FILLER_0_7_24
*1038 FILLER_0_7_3
*1039 FILLER_0_7_36
*1040 FILLER_0_7_48
*1041 FILLER_0_7_57
*1042 FILLER_0_7_63
*1043 FILLER_0_7_69
*1044 FILLER_0_7_81
*1045 FILLER_0_7_93
*1046 FILLER_0_8_106
*1047 FILLER_0_8_118
*1048 FILLER_0_8_130
*1049 FILLER_0_8_138
*1050 FILLER_0_8_15
*1051 FILLER_0_8_157
*1052 FILLER_0_8_169
*1053 FILLER_0_8_181
*1054 FILLER_0_8_189
*1055 FILLER_0_8_195
*1056 FILLER_0_8_197
*1057 FILLER_0_8_205
*1058 FILLER_0_8_213
*1059 FILLER_0_8_221
*1060 FILLER_0_8_225
*1061 FILLER_0_8_229
*1062 FILLER_0_8_27
*1063 FILLER_0_8_29
*1064 FILLER_0_8_3
*1065 FILLER_0_8_41
*1066 FILLER_0_8_53
*1067 FILLER_0_8_65
*1068 FILLER_0_8_77
*1069 FILLER_0_8_83
*1070 FILLER_0_8_85
*1071 FILLER_0_8_89
*1072 FILLER_0_9_111
*1073 FILLER_0_9_113
*1074 FILLER_0_9_125
*1075 FILLER_0_9_129
*1076 FILLER_0_9_141
*1077 FILLER_0_9_15
*1078 FILLER_0_9_153
*1079 FILLER_0_9_167
*1080 FILLER_0_9_169
*1081 FILLER_0_9_181
*1082 FILLER_0_9_193
*1083 FILLER_0_9_205
*1084 FILLER_0_9_217
*1085 FILLER_0_9_225
*1086 FILLER_0_9_229
*1087 FILLER_0_9_3
*1088 FILLER_0_9_41
*1089 FILLER_0_9_53
*1090 FILLER_0_9_57
*1091 FILLER_0_9_63
*1092 FILLER_0_9_75
*1093 FILLER_0_9_87
*1094 FILLER_0_9_99
*1095 PHY_EDGE_ROW_0_Left_36
*1096 PHY_EDGE_ROW_0_Right_0
*1097 PHY_EDGE_ROW_10_Left_46
*1098 PHY_EDGE_ROW_10_Right_10
*1099 PHY_EDGE_ROW_11_Left_47
*1100 PHY_EDGE_ROW_11_Right_11
*1101 PHY_EDGE_ROW_12_Left_48
*1102 PHY_EDGE_ROW_12_Right_12
*1103 PHY_EDGE_ROW_13_Left_49
*1104 PHY_EDGE_ROW_13_Right_13
*1105 PHY_EDGE_ROW_14_Left_50
*1106 PHY_EDGE_ROW_14_Right_14
*1107 PHY_EDGE_ROW_15_Left_51
*1108 PHY_EDGE_ROW_15_Right_15
*1109 PHY_EDGE_ROW_16_Left_52
*1110 PHY_EDGE_ROW_16_Right_16
*1111 PHY_EDGE_ROW_17_Left_53
*1112 PHY_EDGE_ROW_17_Right_17
*1113 PHY_EDGE_ROW_18_Left_54
*1114 PHY_EDGE_ROW_18_Right_18
*1115 PHY_EDGE_ROW_19_Left_55
*1116 PHY_EDGE_ROW_19_Right_19
*1117 PHY_EDGE_ROW_1_Left_37
*1118 PHY_EDGE_ROW_1_Right_1
*1119 PHY_EDGE_ROW_20_Left_56
*1120 PHY_EDGE_ROW_20_Right_20
*1121 PHY_EDGE_ROW_21_Left_57
*1122 PHY_EDGE_ROW_21_Right_21
*1123 PHY_EDGE_ROW_22_Left_58
*1124 PHY_EDGE_ROW_22_Right_22
*1125 PHY_EDGE_ROW_23_Left_59
*1126 PHY_EDGE_ROW_23_Right_23
*1127 PHY_EDGE_ROW_24_Left_60
*1128 PHY_EDGE_ROW_24_Right_24
*1129 PHY_EDGE_ROW_25_Left_61
*1130 PHY_EDGE_ROW_25_Right_25
*1131 PHY_EDGE_ROW_26_Left_62
*1132 PHY_EDGE_ROW_26_Right_26
*1133 PHY_EDGE_ROW_27_Left_63
*1134 PHY_EDGE_ROW_27_Right_27
*1135 PHY_EDGE_ROW_28_Left_64
*1136 PHY_EDGE_ROW_28_Right_28
*1137 PHY_EDGE_ROW_29_Left_65
*1138 PHY_EDGE_ROW_29_Right_29
*1139 PHY_EDGE_ROW_2_Left_38
*1140 PHY_EDGE_ROW_2_Right_2
*1141 PHY_EDGE_ROW_30_Left_66
*1142 PHY_EDGE_ROW_30_Right_30
*1143 PHY_EDGE_ROW_31_Left_67
*1144 PHY_EDGE_ROW_31_Right_31
*1145 PHY_EDGE_ROW_32_Left_68
*1146 PHY_EDGE_ROW_32_Right_32
*1147 PHY_EDGE_ROW_33_Left_69
*1148 PHY_EDGE_ROW_33_Right_33
*1149 PHY_EDGE_ROW_34_Left_70
*1150 PHY_EDGE_ROW_34_Right_34
*1151 PHY_EDGE_ROW_35_Left_71
*1152 PHY_EDGE_ROW_35_Right_35
*1153 PHY_EDGE_ROW_3_Left_39
*1154 PHY_EDGE_ROW_3_Right_3
*1155 PHY_EDGE_ROW_4_Left_40
*1156 PHY_EDGE_ROW_4_Right_4
*1157 PHY_EDGE_ROW_5_Left_41
*1158 PHY_EDGE_ROW_5_Right_5
*1159 PHY_EDGE_ROW_6_Left_42
*1160 PHY_EDGE_ROW_6_Right_6
*1161 PHY_EDGE_ROW_7_Left_43
*1162 PHY_EDGE_ROW_7_Right_7
*1163 PHY_EDGE_ROW_8_Left_44
*1164 PHY_EDGE_ROW_8_Right_8
*1165 PHY_EDGE_ROW_9_Left_45
*1166 PHY_EDGE_ROW_9_Right_9
*1167 TAP_TAPCELL_ROW_0_72
*1168 TAP_TAPCELL_ROW_0_73
*1169 TAP_TAPCELL_ROW_0_74
*1170 TAP_TAPCELL_ROW_0_75
*1171 TAP_TAPCELL_ROW_0_76
*1172 TAP_TAPCELL_ROW_0_77
*1173 TAP_TAPCELL_ROW_0_78
*1174 TAP_TAPCELL_ROW_0_79
*1175 TAP_TAPCELL_ROW_10_116
*1176 TAP_TAPCELL_ROW_10_117
*1177 TAP_TAPCELL_ROW_10_118
*1178 TAP_TAPCELL_ROW_10_119
*1179 TAP_TAPCELL_ROW_11_120
*1180 TAP_TAPCELL_ROW_11_121
*1181 TAP_TAPCELL_ROW_11_122
*1182 TAP_TAPCELL_ROW_11_123
*1183 TAP_TAPCELL_ROW_12_124
*1184 TAP_TAPCELL_ROW_12_125
*1185 TAP_TAPCELL_ROW_12_126
*1186 TAP_TAPCELL_ROW_12_127
*1187 TAP_TAPCELL_ROW_13_128
*1188 TAP_TAPCELL_ROW_13_129
*1189 TAP_TAPCELL_ROW_13_130
*1190 TAP_TAPCELL_ROW_13_131
*1191 TAP_TAPCELL_ROW_14_132
*1192 TAP_TAPCELL_ROW_14_133
*1193 TAP_TAPCELL_ROW_14_134
*1194 TAP_TAPCELL_ROW_14_135
*1195 TAP_TAPCELL_ROW_15_136
*1196 TAP_TAPCELL_ROW_15_137
*1197 TAP_TAPCELL_ROW_15_138
*1198 TAP_TAPCELL_ROW_15_139
*1199 TAP_TAPCELL_ROW_16_140
*1200 TAP_TAPCELL_ROW_16_141
*1201 TAP_TAPCELL_ROW_16_142
*1202 TAP_TAPCELL_ROW_16_143
*1203 TAP_TAPCELL_ROW_17_144
*1204 TAP_TAPCELL_ROW_17_145
*1205 TAP_TAPCELL_ROW_17_146
*1206 TAP_TAPCELL_ROW_17_147
*1207 TAP_TAPCELL_ROW_18_148
*1208 TAP_TAPCELL_ROW_18_149
*1209 TAP_TAPCELL_ROW_18_150
*1210 TAP_TAPCELL_ROW_18_151
*1211 TAP_TAPCELL_ROW_19_152
*1212 TAP_TAPCELL_ROW_19_153
*1213 TAP_TAPCELL_ROW_19_154
*1214 TAP_TAPCELL_ROW_19_155
*1215 TAP_TAPCELL_ROW_1_80
*1216 TAP_TAPCELL_ROW_1_81
*1217 TAP_TAPCELL_ROW_1_82
*1218 TAP_TAPCELL_ROW_1_83
*1219 TAP_TAPCELL_ROW_20_156
*1220 TAP_TAPCELL_ROW_20_157
*1221 TAP_TAPCELL_ROW_20_158
*1222 TAP_TAPCELL_ROW_20_159
*1223 TAP_TAPCELL_ROW_21_160
*1224 TAP_TAPCELL_ROW_21_161
*1225 TAP_TAPCELL_ROW_21_162
*1226 TAP_TAPCELL_ROW_21_163
*1227 TAP_TAPCELL_ROW_22_164
*1228 TAP_TAPCELL_ROW_22_165
*1229 TAP_TAPCELL_ROW_22_166
*1230 TAP_TAPCELL_ROW_22_167
*1231 TAP_TAPCELL_ROW_23_168
*1232 TAP_TAPCELL_ROW_23_169
*1233 TAP_TAPCELL_ROW_23_170
*1234 TAP_TAPCELL_ROW_23_171
*1235 TAP_TAPCELL_ROW_24_172
*1236 TAP_TAPCELL_ROW_24_173
*1237 TAP_TAPCELL_ROW_24_174
*1238 TAP_TAPCELL_ROW_24_175
*1239 TAP_TAPCELL_ROW_25_176
*1240 TAP_TAPCELL_ROW_25_177
*1241 TAP_TAPCELL_ROW_25_178
*1242 TAP_TAPCELL_ROW_25_179
*1243 TAP_TAPCELL_ROW_26_180
*1244 TAP_TAPCELL_ROW_26_181
*1245 TAP_TAPCELL_ROW_26_182
*1246 TAP_TAPCELL_ROW_26_183
*1247 TAP_TAPCELL_ROW_27_184
*1248 TAP_TAPCELL_ROW_27_185
*1249 TAP_TAPCELL_ROW_27_186
*1250 TAP_TAPCELL_ROW_27_187
*1251 TAP_TAPCELL_ROW_28_188
*1252 TAP_TAPCELL_ROW_28_189
*1253 TAP_TAPCELL_ROW_28_190
*1254 TAP_TAPCELL_ROW_28_191
*1255 TAP_TAPCELL_ROW_29_192
*1256 TAP_TAPCELL_ROW_29_193
*1257 TAP_TAPCELL_ROW_29_194
*1258 TAP_TAPCELL_ROW_29_195
*1259 TAP_TAPCELL_ROW_2_84
*1260 TAP_TAPCELL_ROW_2_85
*1261 TAP_TAPCELL_ROW_2_86
*1262 TAP_TAPCELL_ROW_2_87
*1263 TAP_TAPCELL_ROW_30_196
*1264 TAP_TAPCELL_ROW_30_197
*1265 TAP_TAPCELL_ROW_30_198
*1266 TAP_TAPCELL_ROW_30_199
*1267 TAP_TAPCELL_ROW_31_200
*1268 TAP_TAPCELL_ROW_31_201
*1269 TAP_TAPCELL_ROW_31_202
*1270 TAP_TAPCELL_ROW_31_203
*1271 TAP_TAPCELL_ROW_32_204
*1272 TAP_TAPCELL_ROW_32_205
*1273 TAP_TAPCELL_ROW_32_206
*1274 TAP_TAPCELL_ROW_32_207
*1275 TAP_TAPCELL_ROW_33_208
*1276 TAP_TAPCELL_ROW_33_209
*1277 TAP_TAPCELL_ROW_33_210
*1278 TAP_TAPCELL_ROW_33_211
*1279 TAP_TAPCELL_ROW_34_212
*1280 TAP_TAPCELL_ROW_34_213
*1281 TAP_TAPCELL_ROW_34_214
*1282 TAP_TAPCELL_ROW_34_215
*1283 TAP_TAPCELL_ROW_35_216
*1284 TAP_TAPCELL_ROW_35_217
*1285 TAP_TAPCELL_ROW_35_218
*1286 TAP_TAPCELL_ROW_35_219
*1287 TAP_TAPCELL_ROW_35_220
*1288 TAP_TAPCELL_ROW_35_221
*1289 TAP_TAPCELL_ROW_35_222
*1290 TAP_TAPCELL_ROW_35_223
*1291 TAP_TAPCELL_ROW_3_88
*1292 TAP_TAPCELL_ROW_3_89
*1293 TAP_TAPCELL_ROW_3_90
*1294 TAP_TAPCELL_ROW_3_91
*1295 TAP_TAPCELL_ROW_4_92
*1296 TAP_TAPCELL_ROW_4_93
*1297 TAP_TAPCELL_ROW_4_94
*1298 TAP_TAPCELL_ROW_4_95
*1299 TAP_TAPCELL_ROW_5_96
*1300 TAP_TAPCELL_ROW_5_97
*1301 TAP_TAPCELL_ROW_5_98
*1302 TAP_TAPCELL_ROW_5_99
*1303 TAP_TAPCELL_ROW_6_100
*1304 TAP_TAPCELL_ROW_6_101
*1305 TAP_TAPCELL_ROW_6_102
*1306 TAP_TAPCELL_ROW_6_103
*1307 TAP_TAPCELL_ROW_7_104
*1308 TAP_TAPCELL_ROW_7_105
*1309 TAP_TAPCELL_ROW_7_106
*1310 TAP_TAPCELL_ROW_7_107
*1311 TAP_TAPCELL_ROW_8_108
*1312 TAP_TAPCELL_ROW_8_109
*1313 TAP_TAPCELL_ROW_8_110
*1314 TAP_TAPCELL_ROW_8_111
*1315 TAP_TAPCELL_ROW_9_112
*1316 TAP_TAPCELL_ROW_9_113
*1317 TAP_TAPCELL_ROW_9_114
*1318 TAP_TAPCELL_ROW_9_115
*1319 ZeroToFiveCounter_10
*1320 ZeroToFiveCounter_11
*1321 ZeroToFiveCounter_12
*1322 ZeroToFiveCounter_13
*1323 ZeroToFiveCounter_14
*1324 ZeroToFiveCounter_15
*1325 ZeroToFiveCounter_16
*1326 ZeroToFiveCounter_9
*1327 _162_
*1328 _163_
*1329 _164_
*1330 _165_
*1331 _166_
*1332 _167_
*1333 _168_
*1334 _169_
*1335 _170_
*1336 _171_
*1337 _172_
*1338 _173_
*1339 _174_
*1340 _175_
*1341 _176_
*1342 _177_
*1343 _178_
*1344 _179_
*1345 _180_
*1346 _181_
*1347 _182_
*1348 _183_
*1349 _184_
*1350 _185_
*1351 _186_
*1352 _187_
*1353 _188_
*1354 _189_
*1355 _190_
*1356 _191_
*1357 _192_
*1358 _193_
*1359 _194_
*1360 _195_
*1361 _196_
*1362 _197_
*1363 _198_
*1364 _199_
*1365 _200_
*1366 _201_
*1367 _202_
*1368 _203_
*1369 _204_
*1370 _205_
*1371 _206_
*1372 _207_
*1373 _208_
*1374 _209_
*1375 _210_
*1376 _211_
*1377 _212_
*1378 _213_
*1379 _214_
*1380 _215_
*1381 _216_
*1382 _217_
*1383 _218_
*1384 _219_
*1385 _220_
*1386 _221_
*1387 _222_
*1388 _223_
*1389 _224_
*1390 _225_
*1391 _226_
*1392 _227_
*1393 _228_
*1394 _229_
*1395 _230_
*1396 _231_
*1397 _232_
*1398 _233_
*1399 _234_
*1400 _235_
*1401 _236_
*1402 _237_
*1403 _238_
*1404 _239_
*1405 _240_
*1406 _241_
*1407 _242_
*1408 _243_
*1409 _244_
*1410 _245_
*1411 _246_
*1412 _247_
*1413 _248_
*1414 _249_
*1415 _250_
*1416 _251_
*1417 _252_
*1418 _253_
*1419 _254_
*1420 _255_
*1421 _256_
*1422 _257_
*1423 _258_
*1424 _259_
*1425 _260_
*1426 _261_
*1427 _262_
*1428 _263_
*1429 _264_
*1430 _265_
*1431 _266_
*1432 _267_
*1433 _268_
*1434 _269_
*1435 _270_
*1436 _271_
*1437 _272_
*1438 _273_
*1439 _274_
*1440 _275_
*1441 _276_
*1442 _277_
*1443 _278_
*1444 _279_
*1445 _280_
*1446 _281_
*1447 _282_
*1448 _283_
*1449 _284_
*1450 _285_
*1451 _286_
*1452 _287_
*1453 _288_
*1454 _289_
*1455 _290_
*1456 _291_
*1457 _292_
*1458 _293_
*1459 _294_
*1460 _295_
*1461 _296_
*1462 _297_
*1463 _298_
*1464 _299_
*1465 _300_
*1466 _301_
*1467 _302_
*1468 _303_
*1469 _304_
*1470 _305_
*1471 _306_
*1472 _307_
*1473 _308_
*1474 _309_
*1475 _310_
*1476 _311_
*1477 _312_
*1478 _313_
*1479 _314_
*1480 _315_
*1481 _316_
*1482 _317_
*1483 _318_
*1484 _319_
*1485 _320_
*1486 _321_
*1487 _322_
*1488 _323_
*1489 _324_
*1490 _325_
*1491 _326_
*1492 _327_
*1493 _328_
*1494 _329_
*1495 _330_
*1496 _331_
*1497 _332_
*1498 _333_
*1499 _334_
*1500 _335_
*1501 _336_
*1502 _337_
*1503 _338_
*1504 _339_
*1505 _340_
*1506 _341_
*1507 _342_
*1508 _343_
*1509 _344_
*1510 _345_
*1511 _346_
*1512 _347_
*1513 _348_
*1514 _349_
*1515 _350_
*1516 _351_
*1517 _352_
*1518 _353_
*1519 _354_
*1520 _355_
*1521 _356_
*1522 _357_
*1523 _358_
*1524 _359_
*1525 _360_
*1526 _361_
*1527 _370_
*1528 clkbuf_0_clk
*1529 clkbuf_2_0__f_clk
*1530 clkbuf_2_1__f_clk
*1531 clkbuf_2_2__f_clk
*1532 clkbuf_2_3__f_clk
*1533 clkload0
*1534 clkload1
*1535 clkload2
*1536 input1
*1537 output2
*1538 output3
*1539 output4
*1540 output5
*1541 output6
*1542 output7
*1543 output8

*PORTS
an[0] O
an[1] O
an[2] O
an[3] O
an[4] O
an[5] O
an[6] O
an[7] O
clk I
rst I
seg[0] O
seg[1] O
seg[2] O
seg[3] O
seg[4] O
seg[5] O
seg[6] O

*D_NET *3 0.000788424
*CONN
*P an[0] O
*I *1319:HI O *D sky130_fd_sc_hd__conb_1
*CAP
1 an[0] 0.000394212
2 *1319:HI 0.000394212
3 an[0] an[1] 0
*RES
1 *1319:HI an[0] 47.7832 
*END

*D_NET *4 0.00093168
*CONN
*P an[1] O
*I *1320:HI O *D sky130_fd_sc_hd__conb_1
*CAP
1 an[1] 0.00046584
2 *1320:HI 0.00046584
3 an[1] an[2] 0
4 an[0] an[1] 0
*RES
1 *1320:HI an[1] 49.1918 
*END

*D_NET *5 0.00062783
*CONN
*P an[2] O
*I *1321:HI O *D sky130_fd_sc_hd__conb_1
*CAP
1 an[2] 0.000313915
2 *1321:HI 0.000313915
3 an[2] an[3] 0
4 an[1] an[2] 0
*RES
1 *1321:HI an[2] 49.5673 
*END

*D_NET *6 0.000921016
*CONN
*P an[3] O
*I *1322:HI O *D sky130_fd_sc_hd__conb_1
*CAP
1 an[3] 0.000460508
2 *1322:HI 0.000460508
3 an[3] an[4] 0
4 an[2] an[3] 0
*RES
1 *1322:HI an[3] 48.4875 
*END

*D_NET *7 0.000797428
*CONN
*P an[4] O
*I *1323:HI O *D sky130_fd_sc_hd__conb_1
*CAP
1 an[4] 0.000396573
2 *1323:HI 0.000396573
3 an[4] an[5] 0
4 an[4] *218:98 4.2812e-06
5 an[3] an[4] 0
*RES
1 *1323:HI an[4] 47.7832 
*END

*D_NET *8 0.000953344
*CONN
*P an[5] O
*I *1324:HI O *D sky130_fd_sc_hd__conb_1
*CAP
1 an[5] 0.000476672
2 *1324:HI 0.000476672
3 an[5] an[6] 0
4 an[4] an[5] 0
*RES
1 *1324:HI an[5] 49.1918 
*END

*D_NET *9 0.000649584
*CONN
*P an[6] O
*I *1325:HI O *D sky130_fd_sc_hd__conb_1
*CAP
1 an[6] 0.000324792
2 *1325:HI 0.000324792
3 an[6] an[7] 0
4 an[5] an[6] 0
*RES
1 *1325:HI an[6] 49.5673 
*END

*D_NET *10 0.000763467
*CONN
*P an[7] O
*I *1326:LO O *D sky130_fd_sc_hd__conb_1
*CAP
1 an[7] 0.000369598
2 *1326:LO 0.000369598
3 an[7] seg[0] 0
4 an[7] *214:8 2.42715e-05
5 an[6] an[7] 0
*RES
1 *1326:LO an[7] 47.0789 
*END

*D_NET *11 0.0178605
*CONN
*P clk I
*I *1528:A I *D sky130_fd_sc_hd__clkbuf_16
*CAP
1 clk 0.0067414
2 *1528:A 0
3 *11:17 0.0067414
4 *11:17 *87:22 0.000409239
5 *11:17 *95:24 0.000104065
6 *11:17 *98:35 0
7 *11:17 *105:20 9.69288e-05
8 *11:17 *124:30 0.00204602
9 *11:17 *146:12 0
10 *11:17 *150:28 0.00130914
11 *11:17 *181:58 0.000412307
12 *11:17 *182:34 0
*RES
1 clk *11:17 44.7916 
2 *11:17 *1528:A 38 
*END

*D_NET *12 0.000756175
*CONN
*P rst I
*I *1536:A I *D sky130_fd_sc_hd__clkbuf_4
*CAP
1 rst 0.000327502
2 *1536:A 0.000327502
3 *1536:A *209:14 0.000101171
*RES
1 rst *1536:A 49.6298 
*END

*D_NET *13 0.000710105
*CONN
*P seg[0] O
*I *1537:X O *D sky130_fd_sc_hd__buf_1
*CAP
1 seg[0] 0.000355052
2 *1537:X 0.000355052
3 seg[0] seg[1] 0
4 seg[0] *123:10 0
5 an[7] seg[0] 0
*RES
1 *1537:X seg[0] 47.0789 
*END

*D_NET *14 0.000877671
*CONN
*P seg[1] O
*I *1538:X O *D sky130_fd_sc_hd__buf_1
*CAP
1 seg[1] 0.000438835
2 *1538:X 0.000438835
3 seg[1] seg[2] 0
4 seg[0] seg[1] 0
*RES
1 *1538:X seg[1] 48.4875 
*END

*D_NET *15 0.00067188
*CONN
*P seg[2] O
*I *1539:X O *D sky130_fd_sc_hd__buf_1
*CAP
1 seg[2] 0.00033594
2 *1539:X 0.00033594
3 seg[2] seg[3] 0
4 seg[1] seg[2] 0
*RES
1 *1539:X seg[2] 49.5673 
*END

*D_NET *16 0.000917587
*CONN
*P seg[3] O
*I *1540:X O *D sky130_fd_sc_hd__buf_1
*CAP
1 seg[3] 0.000458793
2 *1540:X 0.000458793
3 seg[3] seg[4] 0
4 seg[3] *43:10 0
5 seg[2] seg[3] 0
*RES
1 *1540:X seg[3] 48.4875 
*END

*D_NET *17 0.000722578
*CONN
*P seg[4] O
*I *1541:X O *D sky130_fd_sc_hd__buf_1
*CAP
1 seg[4] 0.000361289
2 *1541:X 0.000361289
3 seg[4] seg[5] 0
4 seg[3] seg[4] 0
*RES
1 *1541:X seg[4] 47.0789 
*END

*D_NET *18 0.000909542
*CONN
*P seg[5] O
*I *1542:X O *D sky130_fd_sc_hd__buf_1
*CAP
1 seg[5] 0.000428424
2 *1542:X 0.000428424
3 seg[5] seg[6] 0
4 seg[5] *197:12 5.26945e-05
5 seg[4] seg[5] 0
*RES
1 *1542:X seg[5] 48.4875 
*END

*D_NET *19 0.000683312
*CONN
*P seg[6] O
*I *1543:X O *D sky130_fd_sc_hd__buf_1
*CAP
1 seg[6] 0.000341656
2 *1543:X 0.000341656
3 seg[5] seg[6] 0
*RES
1 *1543:X seg[6] 49.5673 
*END

*D_NET *20 0.0194985
*CONN
*I *1495:D I *D sky130_fd_sc_hd__dfrtp_4
*I *1355:Y O *D sky130_fd_sc_hd__nor2_1
*CAP
1 *1495:D 0.000791142
2 *1355:Y 0.000632124
3 *20:16 0.00138028
4 *20:10 0.00225515
5 *20:8 0.00229814
6 *1495:D *1495:CLK 5.41385e-05
7 *1495:D *106:6 0.00195851
8 *1495:D *106:25 2.44795e-05
9 *1495:D *106:27 5.70419e-05
10 *1495:D *134:35 0.000259096
11 *1495:D *146:20 0.000153703
12 *20:8 *47:60 0.000133667
13 *20:8 *164:18 0.000449157
14 *20:10 *41:22 0.0006632
15 *20:10 *45:14 3.13192e-05
16 *20:10 *134:12 0.00357056
17 *20:10 *134:29 0
18 *20:10 *141:16 0
19 *20:10 *151:12 0.00209462
20 *20:10 *151:16 0.000723568
21 *20:16 *1353:A 0.000424995
22 *20:16 *105:138 0.000240217
23 *20:16 *134:35 0.00130338
*RES
1 *1355:Y *20:8 47.1971 
2 *20:8 *20:10 55.7836 
3 *20:10 *20:16 34.0986 
4 *20:16 *1495:D 47.4429 
*END

*D_NET *21 0.00794103
*CONN
*I *1505:D I *D sky130_fd_sc_hd__dfrtp_4
*I *1391:X O *D sky130_fd_sc_hd__clkbuf_1
*CAP
1 *1505:D 0
2 *1391:X 4.40238e-05
3 *21:20 0.00133125
4 *21:16 0.00284446
5 *21:8 0.00155723
6 *21:8 *100:14 0.000111941
7 *21:8 *165:32 0.000114098
8 *21:16 *47:134 0.000901056
9 *21:16 *181:187 7.73735e-05
10 *21:20 *1518:RESET_B 0.000363413
11 *21:20 *58:10 0
12 *21:20 *79:10 0
13 *21:20 *86:40 5.69614e-05
14 *21:20 *109:40 0.000304633
15 *21:20 *170:74 0
16 *21:20 *185:70 0.000234592
*RES
1 *1391:X *21:8 39.5536 
2 *21:8 *21:16 35.7971 
3 *21:16 *21:20 44.725 
4 *21:20 *1505:D 38 
*END

*D_NET *22 0.0182276
*CONN
*I *1506:D I *D sky130_fd_sc_hd__dfrtp_2
*I *1394:Y O *D sky130_fd_sc_hd__nor3_1
*CAP
1 *1506:D 0
2 *1394:Y 0.00104144
3 *22:26 0.00257448
4 *22:20 0.00382266
5 *22:12 0.00193318
6 *22:8 0.00172644
7 *22:8 *230:DIODE 6.92828e-05
8 *22:8 *1394:B 9.84851e-05
9 *22:8 *1394:C 0.000195197
10 *22:8 *95:113 1.34914e-05
11 *22:8 *129:8 1.59094e-05
12 *22:8 *225:41 6.9805e-05
13 *22:12 *65:10 4.78593e-05
14 *22:12 *134:47 0.000219313
15 *22:12 *139:8 0.000390673
16 *22:12 *188:31 0.000658175
17 *22:12 *213:25 0.000485984
18 *22:12 *225:41 0.00100103
19 *22:20 *1357:A 5.59302e-05
20 *22:20 *1459:B1_N 4.45675e-05
21 *22:20 *1485:A 9.67842e-05
22 *22:20 *1511:RESET_B 0.000229059
23 *22:20 *47:12 2.11157e-05
24 *22:20 *76:50 2.39882e-05
25 *22:20 *84:47 0.000331991
26 *22:20 *85:10 0.000106814
27 *22:20 *108:18 6.31028e-05
28 *22:20 *180:70 6.37845e-05
29 *22:20 *181:75 0
30 *22:20 *186:34 0
31 *22:20 *189:85 1.8904e-05
32 *22:20 *189:114 8.65323e-05
33 *22:20 *198:10 6.79503e-05
34 *22:20 *205:50 0.000282158
35 *22:20 *210:62 9.2467e-06
36 *22:20 *211:27 0.000132422
37 *22:20 *211:35 3.41998e-06
38 *22:26 *1441:A1 6.66057e-05
39 *22:26 *1506:RESET_B 0.000803663
40 *22:26 *1507:RESET_B 0.000717831
41 *22:26 *166:10 9.01417e-05
42 *22:26 *176:12 8.7901e-05
43 *22:26 *180:70 4.23262e-05
44 *22:26 *180:110 0.000175903
45 *22:26 *186:16 0.000161551
46 *22:26 *202:57 8.05098e-05
*RES
1 *1394:Y *22:8 37.4586 
2 *22:8 *22:12 35.6314 
3 *22:12 *22:20 39.65 
4 *22:20 *22:26 49.22 
5 *22:26 *1506:D 38 
*END

*D_NET *23 0.0130456
*CONN
*I *1507:D I *D sky130_fd_sc_hd__dfrtp_4
*I *1398:X O *D sky130_fd_sc_hd__buf_1
*CAP
1 *1507:D 0
2 *1398:X 0.00060741
3 *23:20 0.000637929
4 *23:14 0.00214922
5 *23:8 0.0021187
6 *23:8 *153:32 0.000782499
7 *23:14 *1383:C 0.000333683
8 *23:14 *85:20 0.0017273
9 *23:14 *131:24 0.000242014
10 *23:14 *203:27 1.13579e-05
11 *23:14 *217:10 0.00171067
12 *23:20 *48:16 0.00133503
13 *23:20 *88:60 0.000455384
14 *23:20 *162:24 0.000110915
15 *23:20 *203:31 0.00082347
*RES
1 *1398:X *23:8 46.7207 
2 *23:8 *23:14 47.2107 
3 *23:14 *23:20 48.8086 
4 *23:20 *1507:D 23 
*END

*D_NET *24 0.000538005
*CONN
*I *1508:D I *D sky130_fd_sc_hd__dfrtp_2
*I *1402:X O *D sky130_fd_sc_hd__clkbuf_1
*CAP
1 *1508:D 0
2 *1402:X 0.000130672
3 *24:10 0.000130672
4 *24:10 *1493:A 5.25848e-05
5 *24:10 *149:14 0.000110922
6 *24:10 *157:14 0.000113153
*RES
1 *1402:X *24:10 40.6514 
2 *24:10 *1508:D 38 
*END

*D_NET *25 0.0225477
*CONN
*I *1509:D I *D sky130_fd_sc_hd__dfrtp_2
*I *1407:X O *D sky130_fd_sc_hd__buf_1
*CAP
1 *1509:D 0
2 *1407:X 0
3 *25:32 0.00217066
4 *25:16 0.00701693
5 *25:6 0.00484627
6 *25:16 *41:22 0.00436017
7 *25:16 *45:14 0.00026597
8 *25:16 *108:18 0.000114474
9 *25:16 *146:20 0
10 *25:16 *178:14 0.000163326
11 *25:16 *190:28 0.00093419
12 *25:16 *199:68 0.000108801
13 *25:16 *201:14 0.000119516
14 *25:16 *201:16 0.000121756
15 *25:16 *219:16 0.00125173
16 *25:32 *1509:RESET_B 0.000180632
17 *25:32 *55:6 0.000365366
18 *25:32 *146:20 0
19 *25:32 *149:54 7.70499e-06
20 *25:32 *151:6 0.00026306
21 *25:32 *195:33 0.000257123
22 *25:32 *207:44 0
*RES
1 *1407:X *25:6 38 
2 *25:6 *25:16 46.4506 
3 *25:16 *25:32 41.6644 
4 *25:32 *1509:D 23 
*END

*D_NET *26 0.015064
*CONN
*I *1510:D I *D sky130_fd_sc_hd__dfrtp_2
*I *1411:Y O *D sky130_fd_sc_hd__a211oi_1
*CAP
1 *1510:D 0
2 *1411:Y 0
3 *26:20 0.00154889
4 *26:8 0.00348164
5 *26:6 0.00193275
6 *26:8 *37:30 0.00127852
7 *26:8 *118:10 0.0027404
8 *26:8 *118:16 0.00075588
9 *26:8 *147:16 0.000403554
10 *26:8 *147:18 0.000190036
11 *26:8 *155:12 0.000242849
12 *26:8 *155:76 0.000347659
13 *26:8 *216:10 0.000191157
14 *26:20 *1510:RESET_B 7.55174e-05
15 *26:20 *27:8 2.03764e-06
16 *26:20 *141:43 7.70087e-05
17 *26:20 *142:16 9.38785e-05
18 *26:20 *205:8 5.50049e-05
19 *26:20 *205:44 0.000181807
20 *26:20 *207:73 6.17437e-06
21 *26:20 *213:54 0.000427314
22 *26:20 *219:48 0.00103194
*RES
1 *1411:Y *26:6 38 
2 *26:6 *26:8 60.7136 
3 *26:8 *26:20 40.7271 
4 *26:20 *1510:D 23 
*END

*D_NET *27 0.00645864
*CONN
*I *1511:D I *D sky130_fd_sc_hd__dfrtp_4
*I *1415:X O *D sky130_fd_sc_hd__clkbuf_1
*CAP
1 *1511:D 0.000892417
2 *1415:X 0.000346128
3 *27:12 0.00155592
4 *27:8 0.00100963
5 *1511:D *54:6 0.000230604
6 *1511:D *95:137 0.000181131
7 *1511:D *120:6 3.3577e-05
8 *1511:D *186:78 8.1796e-05
9 *27:8 *1404:B 5.13404e-05
10 *27:8 *1510:RESET_B 0.000136738
11 *27:8 *219:48 4.82702e-05
12 *27:12 *1484:A 0
13 *27:12 *96:19 0.000831496
14 *27:12 *120:10 0.000276261
15 *27:12 *129:10 0.000781298
16 *26:20 *27:8 2.03764e-06
*RES
1 *1415:X *27:8 42.9093 
2 *27:8 *27:12 33.4564 
3 *27:12 *1511:D 40.2964 
*END

*D_NET *28 0.0143951
*CONN
*I *1512:D I *D sky130_fd_sc_hd__dfrtp_4
*I *1417:Y O *D sky130_fd_sc_hd__nor2_1
*CAP
1 *1512:D 0
2 *1417:Y 0
3 *28:12 0.00122598
4 *28:10 0.00122598
5 *28:8 0.00110009
6 *28:6 0.00110009
7 *28:8 *40:10 8.62783e-05
8 *28:8 *41:22 0.000162129
9 *28:8 *141:16 0.0015995
10 *28:8 *151:12 0.000552352
11 *28:8 *151:16 0.00144484
12 *28:8 *164:10 0
13 *28:8 *218:10 1.58201e-05
14 *28:12 *1512:CLK 7.44354e-05
15 *28:12 *177:14 0.00192663
16 *28:12 *187:18 0.00180632
17 *28:12 *203:47 0.00115787
18 *28:12 *204:62 0.000911176
19 *28:12 *205:52 5.61255e-06
*RES
1 *1417:Y *28:6 38 
2 *28:6 *28:8 35.3593 
3 *28:8 *28:10 15 
4 *28:10 *28:12 41.1179 
5 *28:12 *1512:D 23 
*END

*D_NET *29 0.0119772
*CONN
*I *1513:D I *D sky130_fd_sc_hd__dfrtp_4
*I *1420:X O *D sky130_fd_sc_hd__o211a_1
*CAP
1 *1513:D 1.81246e-05
2 *1420:X 0.000967453
3 *29:32 0.00272636
4 *29:12 0.00367568
5 *1513:D *188:81 8.82053e-06
6 *29:12 *87:22 0.00124709
7 *29:12 *97:12 8.11914e-06
8 *29:12 *97:18 1.44721e-05
9 *29:12 *157:14 4.02673e-05
10 *29:12 *169:34 3.12916e-05
11 *29:12 *174:22 0.000282579
12 *29:32 *1526:CLK 3.95949e-05
13 *29:32 *1526:RESET_B 9.81871e-05
14 *29:32 *44:20 4.44064e-05
15 *29:32 *86:10 0
16 *29:32 *86:22 0
17 *29:32 *87:22 0.000157326
18 *29:32 *105:20 0.000220791
19 *29:32 *105:96 2.0142e-05
20 *29:32 *109:28 4.6318e-06
21 *29:32 *125:24 0.000177828
22 *29:32 *127:12 0
23 *29:32 *160:37 0
24 *29:32 *169:34 0.000351754
25 *29:32 *174:22 0.000112153
26 *29:32 *187:66 0.00100432
27 *29:32 *210:52 0.000438541
28 *29:32 *210:56 1.48595e-06
29 *29:32 *220:20 0.000285741
*RES
1 *1420:X *29:12 49.8807 
2 *29:12 *29:32 42.2174 
3 *29:32 *1513:D 38.2071 
*END

*D_NET *30 0.0107724
*CONN
*I *1514:D I *D sky130_fd_sc_hd__dfrtp_4
*I *1426:X O *D sky130_fd_sc_hd__buf_1
*CAP
1 *1514:D 0.000164777
2 *1426:X 0.00174608
3 *30:10 0.00113664
4 *30:6 0.00271794
5 *1514:D *1514:RESET_B 0.000172885
6 *1514:D *209:35 0.000303782
7 *30:6 *1338:A1 3.12704e-05
8 *30:6 *50:16 0.000290237
9 *30:6 *50:30 0.000267454
10 *30:6 *92:8 0.00056846
11 *30:6 *187:111 2.38387e-06
12 *30:6 *189:95 0.000123287
13 *30:10 *47:28 0.00188522
14 *30:10 *202:57 0.00122937
15 *30:10 *202:63 4.6318e-06
16 *30:10 *208:41 6.23986e-05
17 *30:10 *208:108 6.55525e-05
*RES
1 *1426:X *30:6 46.0136 
2 *30:6 *30:10 41.5557 
3 *30:10 *1514:D 41.9564 
*END

*D_NET *31 0.0116024
*CONN
*I *1496:D I *D sky130_fd_sc_hd__dfrtp_4
*I *1359:X O *D sky130_fd_sc_hd__buf_1
*CAP
1 *1496:D 0.000254405
2 *1359:X 0.000763294
3 *31:16 0.000764809
4 *31:10 0.00240543
5 *31:8 0.00265832
6 *1496:D *1519:RESET_B 0.000107106
7 *1496:D *61:12 0.000142678
8 *1496:D *112:18 0.000520929
9 *1496:D *178:22 0.000543911
10 *1496:D *183:91 8.26478e-05
11 *31:8 *1359:A 0.000171898
12 *31:8 *36:12 0.000247311
13 *31:10 *36:12 0.00202082
14 *31:10 *143:22 0.00060829
15 *31:16 *91:14 1.51076e-05
16 *31:16 *99:10 0.000132039
17 *31:16 *101:12 0
18 *31:16 *174:30 0
19 *31:16 *191:93 0.000163352
*RES
1 *1359:X *31:8 34.3618 
2 *31:8 *31:10 40.8796 
3 *31:10 *31:16 38.2443 
4 *31:16 *1496:D 35.0557 
*END

*D_NET *32 0.0166033
*CONN
*I *1515:D I *D sky130_fd_sc_hd__dfrtp_1
*I *1430:X O *D sky130_fd_sc_hd__clkbuf_1
*CAP
1 *1515:D 0
2 *1430:X 0.000691365
3 *32:22 0.000617226
4 *32:18 0.00116348
5 *32:10 0.00148665
6 *32:6 0.00163177
7 *32:6 *47:43 0.00174531
8 *32:6 *134:73 0.000559363
9 *32:6 *183:12 0.00106085
10 *32:6 *183:51 8.76309e-05
11 *32:6 *200:110 0.000263943
12 *32:10 *98:12 7.24729e-05
13 *32:10 *98:14 6.99132e-06
14 *32:10 *114:18 0.000151508
15 *32:10 *146:20 0.000267279
16 *32:10 *168:20 0.000625087
17 *32:10 *168:51 0.00130759
18 *32:10 *176:27 0.000452008
19 *32:10 *191:14 0.00140417
20 *32:18 *34:8 0.000192185
21 *32:18 *146:20 0.000127194
22 *32:18 *166:10 0.00126017
23 *32:18 *184:31 0.000140935
24 *32:18 *191:14 0.000519487
25 *32:18 *218:14 7.14493e-05
26 *32:22 *1515:CLK 0.000353325
27 *32:22 *1523:D 0.000112537
28 *32:22 *1523:RESET_B 9.20608e-05
29 *32:22 *76:68 2.58554e-05
30 *32:22 *181:81 5.43544e-05
31 *32:22 *187:12 5.90398e-05
*RES
1 *1430:X *32:6 46.0136 
2 *32:6 *32:10 46.8379 
3 *32:10 *32:18 48.6221 
4 *32:18 *32:22 27.0557 
5 *32:22 *1515:D 23 
*END

*D_NET *33 0.00702285
*CONN
*I *1516:D I *D sky130_fd_sc_hd__dfrtp_2
*I *1433:Y O *D sky130_fd_sc_hd__a211oi_1
*CAP
1 *1516:D 0
2 *1433:Y 0.000119964
3 *33:16 0.00128245
4 *33:8 0.00140241
5 *33:8 *163:12 0.000137361
6 *33:16 *1369:A 5.36496e-06
7 *33:16 *1516:CLK 0.000547523
8 *33:16 *87:44 0.000328215
9 *33:16 *88:60 6.08617e-05
10 *33:16 *95:36 1.15883e-05
11 *33:16 *95:47 1.88944e-05
12 *33:16 *130:20 0.000254143
13 *33:16 *184:97 0.000103918
14 *33:16 *187:34 0.000334221
15 *33:16 *190:115 0.00131223
16 *33:16 *202:10 0.000221483
17 *33:16 *202:42 3.8796e-05
18 *33:16 *210:56 1.19239e-05
19 *33:16 *215:51 0.000831498
*RES
1 *1433:Y *33:8 39.5743 
2 *33:8 *33:16 48.3086 
3 *33:16 *1516:D 23 
*END

*D_NET *34 0.00114927
*CONN
*I *1517:D I *D sky130_fd_sc_hd__dfrtp_1
*I *1437:X O *D sky130_fd_sc_hd__clkbuf_1
*CAP
1 *1517:D 0
2 *1437:X 0.000234389
3 *34:8 0.000234389
4 *34:8 *105:138 0.000224336
5 *34:8 *114:18 7.68351e-05
6 *34:8 *166:10 0.000171991
7 *34:8 *191:14 1.51481e-05
8 *32:18 *34:8 0.000192185
*RES
1 *1437:X *34:8 45.1879 
2 *34:8 *1517:D 38 
*END

*D_NET *35 0.00597774
*CONN
*I *1518:D I *D sky130_fd_sc_hd__dfrtp_2
*I *1440:Y O *D sky130_fd_sc_hd__a221oi_1
*CAP
1 *1518:D 0.000715947
2 *1440:Y 0
3 *35:10 0.00164141
4 *35:6 0.000925465
5 *1518:D *1518:RESET_B 0.000135037
6 *1518:D *74:16 4.67488e-05
7 *1518:D *74:20 0.000298674
8 *1518:D *185:70 0.000126847
9 *35:10 *1411:C1 5.80693e-05
10 *35:10 *47:93 0.000410379
11 *35:10 *47:108 0.000983986
12 *35:10 *47:110 0.000253744
13 *35:10 *133:10 0
14 *35:10 *181:162 0
15 *35:10 *181:172 2.37942e-05
16 *35:10 *207:106 0.000313085
17 *35:10 *207:110 4.45495e-05
*RES
1 *1440:Y *35:6 38 
2 *35:6 *35:10 38.0343 
3 *35:10 *1518:D 36.0086 
*END

*D_NET *36 0.0173463
*CONN
*I *1519:D I *D sky130_fd_sc_hd__dfrtp_4
*I *1443:Y O *D sky130_fd_sc_hd__nor3_1
*CAP
1 *1519:D 0
2 *1443:Y 0
3 *36:18 0.000271564
4 *36:12 0.0041971
5 *36:10 0.00437254
6 *36:6 0.000447007
7 *36:10 *43:10 0.000113624
8 *36:10 *179:54 0.000998571
9 *36:12 *1359:A 0.000310653
10 *36:12 *128:22 0.000812124
11 *36:12 *129:84 0.000137651
12 *36:12 *201:37 0.00127298
13 *36:12 *201:45 0.000396857
14 *36:12 *218:42 0.00093383
15 *36:18 *1409:A 6.16531e-05
16 *36:18 *178:18 0.000608083
17 *36:18 *210:16 0.000143924
18 *31:8 *36:12 0.000247311
19 *31:10 *36:12 0.00202082
*RES
1 *1443:Y *36:6 38 
2 *36:6 *36:10 28.1743 
3 *36:10 *36:12 91.1429 
4 *36:12 *36:18 38.2443 
5 *36:18 *1519:D 23 
*END

*D_NET *37 0.0100734
*CONN
*I *1520:D I *D sky130_fd_sc_hd__dfrtp_4
*I *1447:X O *D sky130_fd_sc_hd__clkbuf_1
*CAP
1 *1520:D 0
2 *1447:X 0.000200475
3 *37:30 0.000516819
4 *37:22 0.00170196
5 *37:16 0.00140267
6 *37:10 0.000418
7 *37:10 *119:14 0.000283943
8 *37:10 *129:10 0.000281805
9 *37:16 *145:6 0.000265277
10 *37:22 *44:12 0.000528856
11 *37:22 *165:18 0
12 *37:22 *204:47 0.000915601
13 *37:22 *214:12 0.000991359
14 *37:30 *155:12 0.0012776
15 *37:30 *185:92 1.05235e-05
16 *26:8 *37:30 0.00127852
*RES
1 *1447:X *37:10 42.64 
2 *37:10 *37:16 33.0036 
3 *37:16 *37:22 44.2071 
4 *37:22 *37:30 48.0214 
5 *37:30 *1520:D 23 
*END

*D_NET *38 0.00828102
*CONN
*I *1521:D I *D sky130_fd_sc_hd__dfrtp_1
*I *1449:X O *D sky130_fd_sc_hd__o211a_1
*CAP
1 *1521:D 0.000142968
2 *1449:X 0.000187129
3 *38:14 0.00180263
4 *38:8 0.00184679
5 *1521:D *1383:C 5.8147e-05
6 *1521:D *1521:CLK 2.34279e-05
7 *38:8 *91:6 0.000189848
8 *38:8 *102:16 0.000446518
9 *38:14 *57:14 6.61934e-05
10 *38:14 *68:16 0.00107221
11 *38:14 *98:35 0
12 *38:14 *134:79 3.19892e-06
13 *38:14 *134:94 0.000441513
14 *38:14 *162:24 0.000121604
15 *38:14 *174:38 0
16 *38:14 *188:90 0
17 *38:14 *202:57 6.32792e-05
18 *38:14 *202:63 0.000386058
19 *38:14 *225:18 0.00123251
20 *38:14 *225:29 0.000196985
*RES
1 *1449:X *38:8 42.9093 
2 *38:8 *38:14 38.9429 
3 *38:14 *1521:D 40.2164 
*END

*D_NET *39 0.0234146
*CONN
*I *1497:D I *D sky130_fd_sc_hd__dfrtp_4
*I *229:DIODE I *D sky130_fd_sc_hd__diode_2
*I *1363:X O *D sky130_fd_sc_hd__buf_1
*CAP
1 *1497:D 0.00019081
2 *229:DIODE 2.20409e-05
3 *1363:X 0.000537017
4 *39:22 0.00720038
5 *39:12 0.00752455
6 *229:DIODE *98:12 4.93266e-05
7 *229:DIODE *114:18 4.67998e-05
8 *1497:D *1497:RESET_B 6.37748e-05
9 *1497:D *98:12 3.54819e-05
10 *1497:D *114:18 4.30894e-05
11 *1497:D *184:31 0.000310861
12 *1497:D *218:14 0.00022972
13 *39:12 *1519:RESET_B 0.00144302
14 *39:12 *104:16 1.63247e-05
15 *39:12 *131:24 0.000669875
16 *39:22 *40:26 0.00014948
17 *39:22 *45:26 0.00230448
18 *39:22 *47:28 0.000118027
19 *39:22 *141:14 0.00032355
20 *39:22 *150:28 0.000138228
21 *39:22 *162:24 0
22 *39:22 *170:16 0.000191591
23 *39:22 *182:34 0.00102295
24 *39:22 *188:90 0.000105227
25 *39:22 *199:48 0.000331957
26 *39:22 *220:40 0.000346091
*RES
1 *1363:X *39:12 49.0819 
2 *39:12 *39:22 40.044 
3 *39:22 *229:DIODE 38.6732 
4 *39:22 *1497:D 43.5825 
*END

*D_NET *40 0.0165946
*CONN
*I *1498:D I *D sky130_fd_sc_hd__dfrtp_2
*I *1366:X O *D sky130_fd_sc_hd__buf_1
*CAP
1 *1498:D 0
2 *1366:X 0.00044219
3 *40:26 0.00243369
4 *40:14 0.00416581
5 *40:10 0.0021743
6 *40:10 *114:18 3.78259e-05
7 *40:10 *151:12 8.4047e-05
8 *40:14 *224:24 0.00181434
9 *40:26 *45:26 6.27642e-05
10 *40:26 *95:47 0
11 *40:26 *120:62 2.944e-05
12 *40:26 *141:14 0.0028617
13 *40:26 *148:14 0
14 *40:26 *158:18 6.75548e-06
15 *40:26 *160:37 0.000172255
16 *40:26 *190:62 0.000595151
17 *40:26 *208:55 0.000886391
18 *40:26 *224:14 0.000421934
19 *40:26 *224:100 0.000170224
20 *28:8 *40:10 8.62783e-05
21 *39:22 *40:26 0.00014948
*RES
1 *1366:X *40:10 44.1107 
2 *40:10 *40:14 38.0136 
3 *40:14 *40:26 48.6079 
4 *40:26 *1498:D 38 
*END

*D_NET *41 0.0191717
*CONN
*I *1499:D I *D sky130_fd_sc_hd__dfrtp_4
*I *1371:X O *D sky130_fd_sc_hd__buf_1
*CAP
1 *1499:D 1.09701e-05
2 *1371:X 0.00059888
3 *41:22 0.00557076
4 *41:8 0.00615867
5 *1499:D *1519:CLK 7.76909e-06
6 *1499:D *183:20 3.50862e-06
7 *1499:D *210:16 1.05658e-05
8 *41:8 *151:6 0.000326391
9 *41:22 *45:14 0.000128671
10 *41:22 *94:10 0
11 *41:22 *105:138 7.64198e-05
12 *41:22 *134:12 0.000356277
13 *41:22 *134:29 0.000233369
14 *41:22 *146:20 0
15 *41:22 *151:12 0.00022183
16 *41:22 *151:16 0.000176717
17 *41:22 *163:24 0
18 *41:22 *166:10 0
19 *41:22 *201:16 0.000105425
20 *20:10 *41:22 0.0006632
21 *25:16 *41:22 0.00436017
22 *28:8 *41:22 0.000162129
*RES
1 *1371:X *41:8 47.1971 
2 *41:8 *41:22 46.6482 
3 *41:22 *1499:D 46.3211 
*END

*D_NET *42 0.0154839
*CONN
*I *1500:D I *D sky130_fd_sc_hd__dfrtp_2
*I *1374:Y O *D sky130_fd_sc_hd__nor3_1
*CAP
1 *1500:D 0
2 *1374:Y 0.00144988
3 *42:30 0.000745153
4 *42:20 0.00325983
5 *42:16 0.00259206
6 *42:10 0.00152726
7 *42:10 *1374:B 7.15126e-05
8 *42:10 *43:14 4.87302e-05
9 *42:10 *43:24 0.000781083
10 *42:10 *155:49 5.3304e-05
11 *42:16 *155:26 0.00010602
12 *42:16 *209:35 2.26497e-05
13 *42:20 *227:DIODE 1.34995e-05
14 *42:20 *1501:RESET_B 0.000387051
15 *42:20 *1508:RESET_B 0.00102548
16 *42:20 *43:24 0.000571018
17 *42:30 *1501:RESET_B 0.000482803
18 *42:30 *54:28 0.000762319
19 *42:30 *150:28 0.000102364
20 *42:30 *183:51 1.02219e-05
21 *42:30 *193:14 0.00144235
22 *42:30 *216:32 2.93283e-05
*RES
1 *1374:Y *42:10 42.3679 
2 *42:10 *42:16 31.5536 
3 *42:16 *42:20 48.0186 
4 *42:20 *42:30 36.7966 
5 *42:30 *1500:D 23 
*END

*D_NET *43 0.0159032
*CONN
*I *1501:D I *D sky130_fd_sc_hd__dfrtp_1
*I *227:DIODE I *D sky130_fd_sc_hd__diode_2
*I *1378:X O *D sky130_fd_sc_hd__buf_1
*CAP
1 *1501:D 0
2 *227:DIODE 0.000148432
3 *1378:X 0
4 *43:24 0.00197926
5 *43:14 0.00367155
6 *43:10 0.0024398
7 *43:6 0.000599081
8 *227:DIODE *1501:RESET_B 9.02048e-05
9 *227:DIODE *214:36 0.000130779
10 *43:10 *49:8 0.000324963
11 *43:10 *123:10 0.000375722
12 *43:10 *169:34 2.26406e-05
13 *43:10 *179:54 7.1299e-05
14 *43:10 *179:78 5.91913e-05
15 *43:10 *179:93 8.4372e-05
16 *43:14 *1374:A 0.000747564
17 *43:14 *1374:B 9.62764e-05
18 *43:14 *47:108 8.264e-05
19 *43:14 *203:77 0.000689371
20 *43:24 *1501:RESET_B 0.000104357
21 *43:24 *1508:RESET_B 0.000850011
22 *43:24 *155:49 0.000571614
23 *43:24 *185:22 0.000139352
24 *43:24 *214:36 0.000380465
25 *43:24 *222:8 0.000716263
26 seg[3] *43:10 0
27 *36:10 *43:10 0.000113624
28 *42:10 *43:14 4.87302e-05
29 *42:10 *43:24 0.000781083
30 *42:20 *227:DIODE 1.34995e-05
31 *42:20 *43:24 0.000571018
*RES
1 *1378:X *43:6 38 
2 *43:6 *43:10 32.4 
3 *43:10 *43:14 31.4857 
4 *43:14 *43:24 46.2136 
5 *43:24 *227:DIODE 26.0036 
6 *43:24 *1501:D 23 
*END

*D_NET *44 0.0154571
*CONN
*I *1502:D I *D sky130_fd_sc_hd__dfrtp_1
*I *1380:Y O *D sky130_fd_sc_hd__a211oi_2
*CAP
1 *1502:D 0
2 *1380:Y 0.000116936
3 *44:20 0.000366602
4 *44:12 0.00387921
5 *44:10 0.0035126
6 *44:8 0.000116936
7 *44:8 *123:10 0.000190591
8 *44:8 *179:93 0
9 *44:12 *1446:B 0.000222948
10 *44:12 *125:18 0.000138607
11 *44:12 *173:6 0.00107699
12 *44:12 *214:12 0.000566305
13 *44:12 *220:89 0.000715964
14 *44:12 *223:25 0.00370758
15 *44:20 *86:22 0
16 *44:20 *127:8 0.000188934
17 *44:20 *155:63 8.35934e-05
18 *29:32 *44:20 4.44064e-05
19 *37:22 *44:12 0.000528856
*RES
1 *1380:Y *44:8 40.61 
2 *44:8 *44:10 15 
3 *44:10 *44:12 71.6093 
4 *44:12 *44:20 35.4168 
5 *44:20 *1502:D 23 
*END

*D_NET *45 0.0202013
*CONN
*I *1503:D I *D sky130_fd_sc_hd__dfrtp_4
*I *1384:X O *D sky130_fd_sc_hd__buf_1
*CAP
1 *1503:D 0.000131112
2 *1384:X 0.000141786
3 *45:26 0.00365744
4 *45:14 0.00480031
5 *45:8 0.00141576
6 *1503:D *156:31 0
7 *1503:D *156:56 0
8 *1503:D *180:125 0.000174128
9 *45:8 *95:12 0.000181925
10 *45:14 *134:12 0.000518269
11 *45:14 *183:18 0
12 *45:14 *183:20 0
13 *45:14 *201:14 0.00101774
14 *45:14 *201:16 0.00142275
15 *45:26 *50:30 0.000895836
16 *45:26 *97:73 0.0004694
17 *45:26 *98:12 0.000298751
18 *45:26 *108:18 0.000627172
19 *45:26 *134:12 0
20 *45:26 *141:14 2.21565e-05
21 *45:26 *148:14 0.000887543
22 *45:26 *178:14 4.334e-05
23 *45:26 *201:14 0.000168335
24 *45:26 *208:55 0.000528757
25 *45:26 *219:14 0
26 *45:26 *224:24 5.62433e-06
27 *20:10 *45:14 3.13192e-05
28 *25:16 *45:14 0.00026597
29 *39:22 *45:26 0.00230448
30 *40:26 *45:26 6.27642e-05
31 *41:22 *45:14 0.000128671
*RES
1 *1384:X *45:8 40.0507 
2 *45:8 *45:14 49.0957 
3 *45:14 *45:26 49.4052 
4 *45:26 *1503:D 48.4339 
*END

*D_NET *46 0.00437914
*CONN
*I *1504:D I *D sky130_fd_sc_hd__dfrtp_1
*I *1387:Y O *D sky130_fd_sc_hd__nor3_1
*CAP
1 *1504:D 0
2 *1387:Y 0.000104824
3 *46:16 0.000970275
4 *46:10 0.0010751
5 *46:10 *218:42 8.74947e-05
6 *46:16 *1504:RESET_B 0.000256765
7 *46:16 *47:51 0.00106832
8 *46:16 *110:30 0.000322757
9 *46:16 *220:8 0.000399427
10 *46:16 *225:10 9.41704e-05
*RES
1 *1387:Y *46:10 39.595 
2 *46:10 *46:16 38.3036 
3 *46:16 *1504:D 23 
*END

*D_NET *47 0.0562568
*CONN
*I *1394:A I *D sky130_fd_sc_hd__nor3_1
*I *1443:A I *D sky130_fd_sc_hd__nor3_1
*I *1440:C1 I *D sky130_fd_sc_hd__a221oi_1
*I *1411:C1 I *D sky130_fd_sc_hd__a211oi_1
*I *1374:A I *D sky130_fd_sc_hd__nor3_1
*I *1433:C1 I *D sky130_fd_sc_hd__a211oi_1
*I *1417:A I *D sky130_fd_sc_hd__nor2_1
*I *1355:B I *D sky130_fd_sc_hd__nor2_1
*I *1387:A I *D sky130_fd_sc_hd__nor3_1
*I *1522:D I *D sky130_fd_sc_hd__dfrtp_4
*I *1354:X O *D sky130_fd_sc_hd__clkbuf_4
*CAP
1 *1394:A 0.00019274
2 *1443:A 0
3 *1440:C1 2.32701e-05
4 *1411:C1 0.000524471
5 *1374:A 0.000328429
6 *1433:C1 0.000141581
7 *1417:A 0
8 *1355:B 0
9 *1387:A 0
10 *1522:D 0.000185985
11 *1354:X 5.80594e-05
12 *47:134 0.00050363
13 *47:110 0.000664288
14 *47:108 0.00103837
15 *47:95 0.000746624
16 *47:93 0.00163089
17 *47:91 0.00446617
18 *47:73 0.000854747
19 *47:60 0.000801527
20 *47:51 0.000699724
21 *47:47 0.00157588
22 *47:45 0.000929375
23 *47:43 0.00165202
24 *47:28 0.00370643
25 *47:26 0.0021733
26 *47:24 0.000816449
27 *47:12 0.00335376
28 *1394:A *84:12 4.15283e-06
29 *1394:A *133:10 0
30 *1394:A *221:48 5.92429e-05
31 *1411:C1 *1411:A1 1.76557e-05
32 *1411:C1 *1411:A2 5.50106e-05
33 *1411:C1 *1411:B1 5.50049e-05
34 *1411:C1 *147:18 4.20701e-05
35 *1411:C1 *147:35 0
36 *1411:C1 *181:172 0
37 *1411:C1 *207:110 0.000450681
38 *1433:C1 *70:24 0.000665704
39 *1433:C1 *163:12 0.000665704
40 *1440:C1 *1440:B2 5.3304e-05
41 *1440:C1 *189:59 5.3304e-05
42 *1522:D *1335:A 2.95423e-05
43 *1522:D *134:79 0.000310158
44 *1522:D *188:90 0.00031244
45 *47:12 *76:50 5.01029e-05
46 *47:12 *76:68 5.5792e-05
47 *47:12 *181:92 2.02872e-05
48 *47:24 *69:10 7.16228e-05
49 *47:24 *76:68 0.000402252
50 *47:24 *113:16 0.000327166
51 *47:24 *206:16 7.40619e-05
52 *47:24 *211:8 0.000313785
53 *47:26 *153:10 0
54 *47:26 *208:108 4.13019e-05
55 *47:28 *134:79 5.91105e-05
56 *47:28 *153:10 0
57 *47:28 *170:14 0.000951547
58 *47:28 *170:16 0.000180096
59 *47:28 *187:22 0
60 *47:28 *188:90 0.0012271
61 *47:28 *202:63 9.31237e-05
62 *47:28 *208:108 0.000255394
63 *47:28 *214:36 8.62876e-05
64 *47:43 *49:12 0.000219258
65 *47:43 *134:73 1.57659e-05
66 *47:47 *194:12 0.000160125
67 *47:47 *200:110 0.000150033
68 *47:51 *110:30 9.25661e-05
69 *47:51 *194:12 0.00027266
70 *47:51 *200:97 0.000427222
71 *47:51 *200:110 0.00127473
72 *47:60 *164:18 0.000620623
73 *47:60 *183:18 0.00043944
74 *47:73 *194:12 0.000533388
75 *47:73 *196:16 0.00025759
76 *47:73 *209:12 0.000482167
77 *47:91 *113:16 0.0032564
78 *47:91 *146:20 0
79 *47:93 *1422:D 0.000163352
80 *47:93 *84:12 0.000485259
81 *47:93 *133:10 0
82 *47:93 *206:69 0.000247678
83 *47:93 *207:106 0.000675869
84 *47:93 *208:69 1.69668e-05
85 *47:93 *209:72 0.000864469
86 *47:93 *209:89 0.000249918
87 *47:93 *221:48 0.000384602
88 *47:108 *207:110 0.000992374
89 *47:110 *207:110 0.000260783
90 *47:134 *1443:C 0.000264564
91 *47:134 *74:8 0.000347998
92 *47:134 *181:187 0.000641143
93 *20:8 *47:60 0.000133667
94 *21:16 *47:134 0.000901056
95 *22:20 *47:12 2.11157e-05
96 *30:10 *47:28 0.00188522
97 *32:6 *47:43 0.00174531
98 *35:10 *1411:C1 5.80693e-05
99 *35:10 *47:93 0.000410379
100 *35:10 *47:108 0.000983986
101 *35:10 *47:110 0.000253744
102 *39:22 *47:28 0.000118027
103 *43:14 *1374:A 0.000747564
104 *43:14 *47:108 8.264e-05
105 *46:16 *47:51 0.00106832
*RES
1 *1354:X *47:12 47.4189 
2 *47:12 *47:24 47.9267 
3 *47:24 *47:26 2.61 
4 *47:26 *47:28 45.9236 
5 *47:28 *1522:D 42.9921 
6 *47:28 *47:43 37.5371 
7 *47:43 *47:45 15 
8 *47:45 *47:47 2.25786 
9 *47:47 *47:51 38.0343 
10 *47:51 *1387:A 23 
11 *47:47 *47:60 32.2964 
12 *47:60 *1355:B 23 
13 *47:45 *47:73 32.835 
14 *47:73 *1417:A 23 
15 *47:26 *1433:C1 45.2914 
16 *47:12 *47:91 14.496 
17 *47:91 *47:93 45.7475 
18 *47:93 *47:95 15 
19 *47:95 *1374:A 31.2443 
20 *47:95 *47:108 29.6243 
21 *47:108 *47:110 3.66643 
22 *47:110 *1411:C1 49.1236 
23 *47:110 *1440:C1 38.6214 
24 *47:108 *47:134 31.3436 
25 *47:134 *1443:A 23 
26 *47:91 *1394:A 41.4075 
*END

*D_NET *48 0.0176969
*CONN
*I *1495:RESET_B I *D sky130_fd_sc_hd__dfrtp_4
*I *1461:Y O *D sky130_fd_sc_hd__inv_2
*CAP
1 *1495:RESET_B 0.00194971
2 *1461:Y 0.000245253
3 *48:16 0.00353407
4 *48:12 0.0024285
5 *48:8 0.00108939
6 *1495:RESET_B *106:27 9.52447e-05
7 *1495:RESET_B *113:16 0
8 *1495:RESET_B *150:38 4.50884e-05
9 *1495:RESET_B *162:24 1.13839e-05
10 *1495:RESET_B *179:131 0.000533203
11 *1495:RESET_B *180:125 2.05503e-05
12 *1495:RESET_B *199:12 7.69793e-05
13 *1495:RESET_B *203:62 0.000645693
14 *1495:RESET_B *204:24 0.000334924
15 *1495:RESET_B *207:8 0
16 *48:8 *95:64 0.000307132
17 *48:12 *68:16 0.000130348
18 *48:12 *88:60 4.85444e-05
19 *48:12 *159:30 0.000268915
20 *48:12 *181:12 0.000311074
21 *48:12 *217:18 0.000156016
22 *48:12 *221:12 0.000579949
23 *48:16 *70:16 0.000575527
24 *48:16 *88:60 0.000276604
25 *48:16 *110:10 2.5343e-05
26 *48:16 *156:39 0.000158999
27 *48:16 *162:24 0.000241991
28 *48:16 *188:59 6.00121e-05
29 *48:16 *188:65 0.000553392
30 *48:16 *203:31 0.00010989
31 *48:16 *221:10 0.000559061
32 *48:16 *221:12 0.000989068
33 *23:20 *48:16 0.00133503
*RES
1 *1461:Y *48:8 41.48 
2 *48:8 *48:12 20.3311 
3 *48:12 *48:16 49.325 
4 *48:16 *1495:RESET_B 39.0194 
*END

*D_NET *49 0.0186495
*CONN
*I *1496:RESET_B I *D sky130_fd_sc_hd__dfrtp_4
*I *1462:Y O *D sky130_fd_sc_hd__inv_2
*CAP
1 *1496:RESET_B 0
2 *1462:Y 0.000117001
3 *49:20 0.00128894
4 *49:12 0.00511977
5 *49:10 0.00383083
6 *49:8 0.000117001
7 *49:8 *179:93 6.00001e-05
8 *49:8 *193:28 0.000194027
9 *49:12 *1402:A 0.000912113
10 *49:12 *1493:A 7.48505e-05
11 *49:12 *1538:A 5.3304e-05
12 *49:12 *78:6 4.05481e-05
13 *49:12 *88:64 0.000664886
14 *49:12 *115:20 0.0001784
15 *49:12 *134:73 0.000257636
16 *49:12 *134:94 0.000128918
17 *49:12 *153:16 4.78336e-05
18 *49:12 *156:29 9.66585e-05
19 *49:12 *165:26 0.000356222
20 *49:12 *181:52 0.000600425
21 *49:12 *181:124 0.000179725
22 *49:12 *189:26 0.000318829
23 *49:20 *183:83 0.00017776
24 *49:20 *183:91 0.000921579
25 *49:20 *208:18 0.00236807
26 *43:10 *49:8 0.000324963
27 *47:43 *49:12 0.000219258
*RES
1 *1462:Y *49:8 42.3707 
2 *49:8 *49:10 15 
3 *49:10 *49:12 65.8921 
4 *49:12 *49:20 49.0129 
5 *49:20 *1496:RESET_B 15 
*END

*D_NET *50 0.0137934
*CONN
*I *1497:RESET_B I *D sky130_fd_sc_hd__dfrtp_4
*I *1463:Y O *D sky130_fd_sc_hd__inv_2
*CAP
1 *1497:RESET_B 0.0015457
2 *1463:Y 9.14075e-05
3 *50:30 0.0028646
4 *50:16 0.00222041
5 *50:8 0.000992916
6 *1497:RESET_B *184:31 0.00106404
7 *1497:RESET_B *218:10 2.84479e-05
8 *1497:RESET_B *218:14 4.05979e-05
9 *1497:RESET_B *218:62 0.000186637
10 *50:8 *51:8 7.45997e-05
11 *50:8 *205:10 0.000160182
12 *50:16 *1328:B 5.3304e-05
13 *50:16 *84:14 0.000150964
14 *50:16 *84:20 0.000855231
15 *50:16 *84:37 3.18198e-05
16 *50:16 *92:8 0.000135037
17 *50:16 *142:22 0.000306344
18 *50:16 *156:31 4.79458e-06
19 *50:30 *187:111 0.000385201
20 *50:30 *188:65 4.87865e-05
21 *50:30 *208:55 0.000882763
22 *50:30 *218:62 0.000106277
23 *50:30 *226:27 4.60157e-05
24 *1497:D *1497:RESET_B 6.37748e-05
25 *30:6 *50:16 0.000290237
26 *30:6 *50:30 0.000267454
27 *45:26 *50:30 0.000895836
*RES
1 *1463:Y *50:8 40.2579 
2 *50:8 *50:16 49.3989 
3 *50:16 *50:30 49.2101 
4 *50:30 *1497:RESET_B 25.3232 
*END

*D_NET *51 0.0115015
*CONN
*I *1498:RESET_B I *D sky130_fd_sc_hd__dfrtp_2
*I *1464:Y O *D sky130_fd_sc_hd__inv_2
*CAP
1 *1498:RESET_B 3.73276e-05
2 *1464:Y 0
3 *51:8 0.00316971
4 *51:6 0.00313238
5 *51:8 *93:14 0.00041419
6 *51:8 *95:98 0
7 *51:8 *97:35 0.00026444
8 *51:8 *104:16 0
9 *51:8 *104:41 0.000820798
10 *51:8 *115:95 9.79034e-05
11 *51:8 *147:72 0.000154389
12 *51:8 *148:10 2.26406e-05
13 *51:8 *168:40 0.000539434
14 *51:8 *170:64 0.000160125
15 *51:8 *170:70 0.000157245
16 *51:8 *180:44 0.000325574
17 *51:8 *189:59 2.89209e-05
18 *51:8 *190:86 0.00178551
19 *51:8 *195:10 0
20 *51:8 *195:33 0.000103193
21 *51:8 *201:62 0
22 *51:8 *205:10 0.000213134
23 *50:8 *51:8 7.45997e-05
*RES
1 *1464:Y *51:6 38 
2 *51:6 *51:8 69.165 
3 *51:8 *1498:RESET_B 15.6214 
*END

*D_NET *52 0.0182406
*CONN
*I *1499:RESET_B I *D sky130_fd_sc_hd__dfrtp_4
*I *1465:Y O *D sky130_fd_sc_hd__inv_2
*CAP
1 *1499:RESET_B 0.000847298
2 *1465:Y 0.000326971
3 *52:26 0.00105598
4 *52:18 0.00278649
5 *52:16 0.00282259
6 *52:10 0.000571748
7 *1499:RESET_B *103:73 2.90613e-05
8 *1499:RESET_B *200:63 0.0012902
9 *1499:RESET_B *200:65 9.67842e-05
10 *1499:RESET_B *200:75 1.95618e-05
11 *52:10 *1401:A 0.000200095
12 *52:10 *1494:A 0.000438874
13 *52:10 *118:10 5.93338e-05
14 *52:10 *140:8 0.000535883
15 *52:10 *147:35 2.90613e-05
16 *52:16 *1494:A 0.00114194
17 *52:16 *139:32 0.00105929
18 *52:18 *1494:A 1.56665e-05
19 *52:18 *98:35 0.000482568
20 *52:18 *200:63 0.000102851
21 *52:18 *201:56 0.00284308
22 *52:26 *174:38 0.000483569
23 *52:26 *187:72 8.937e-05
24 *52:26 *188:90 8.71386e-05
25 *52:26 *200:63 0.000703234
26 *52:26 *216:83 0.000121922
*RES
1 *1465:Y *52:10 48.5229 
2 *52:10 *52:16 28.0293 
3 *52:16 *52:18 39.6886 
4 *52:18 *52:26 38.9693 
5 *52:26 *1499:RESET_B 46.6439 
*END

*D_NET *53 0.0142761
*CONN
*I *1500:RESET_B I *D sky130_fd_sc_hd__dfrtp_2
*I *1466:Y O *D sky130_fd_sc_hd__inv_2
*CAP
1 *1500:RESET_B 0.000811535
2 *1466:Y 0.000238596
3 *53:12 0.00378667
4 *53:10 0.00297513
5 *53:8 0.000238596
6 *1500:RESET_B *184:97 0.000260587
7 *1500:RESET_B *216:32 0.00118485
8 *1500:RESET_B *222:38 0.000136642
9 *1500:RESET_B *226:16 0.000134411
10 *53:8 *192:10 0.000129024
11 *53:8 *198:18 0.000616956
12 *53:8 *208:75 0.000354778
13 *53:12 *1339:A2 9.75779e-05
14 *53:12 *1339:B1 0.000313236
15 *53:12 *80:8 1.21972e-05
16 *53:12 *103:16 0.000179033
17 *53:12 *120:46 0.000396737
18 *53:12 *120:62 0.000868632
19 *53:12 *121:10 0.000387876
20 *53:12 *208:69 0.000221286
21 *53:12 *208:84 9.88574e-06
22 *53:12 *216:18 0.000695558
23 *53:12 *224:14 1.73274e-05
24 *53:12 *224:18 2.53954e-05
25 *53:12 *226:39 0.000183547
*RES
1 *1466:Y *53:8 46.2443 
2 *53:8 *53:10 15 
3 *53:10 *53:12 54.4579 
4 *53:12 *1500:RESET_B 45.7946 
*END

*D_NET *54 0.0189576
*CONN
*I *1501:RESET_B I *D sky130_fd_sc_hd__dfrtp_1
*I *1467:Y O *D sky130_fd_sc_hd__inv_2
*CAP
1 *1501:RESET_B 0.000331621
2 *1467:Y 0.000928684
3 *54:28 0.00112123
4 *54:18 0.0028164
5 *54:16 0.00264136
6 *54:12 0.000819312
7 *54:6 0.00113342
8 *1501:RESET_B *160:33 0
9 *1501:RESET_B *183:51 3.70187e-05
10 *1501:RESET_B *183:68 0.000357366
11 *54:6 *1511:RESET_B 0.00013774
12 *54:6 *179:163 6.51746e-05
13 *54:6 *186:78 0.000201976
14 *54:6 *206:14 0.000269781
15 *54:12 *186:47 3.98183e-05
16 *54:12 *206:14 3.70094e-05
17 *54:16 *118:20 0.00213925
18 *54:16 *192:6 0.00131147
19 *54:18 *55:10 0
20 *54:18 *70:32 8.63165e-05
21 *54:18 *80:14 0
22 *54:18 *88:12 0.00043671
23 *54:18 *118:26 5.58021e-05
24 *54:18 *148:16 0.00100956
25 *54:18 *175:62 0.000113484
26 *54:18 *181:81 7.18106e-05
27 *54:18 *184:82 8.36198e-05
28 *54:18 *188:50 0
29 *54:18 *216:99 0.000362809
30 *54:28 *60:18 0
31 *54:28 *86:10 0
32 *54:28 *88:12 0.000135037
33 *54:28 *109:18 7.55181e-05
34 *54:28 *130:20 6.86547e-05
35 *54:28 *160:33 0
36 *54:28 *183:68 1.23458e-05
37 *227:DIODE *1501:RESET_B 9.02048e-05
38 *1511:D *54:6 0.000230604
39 *42:20 *1501:RESET_B 0.000387051
40 *42:30 *1501:RESET_B 0.000482803
41 *42:30 *54:28 0.000762319
42 *43:24 *1501:RESET_B 0.000104357
*RES
1 *1467:Y *54:6 37.4379 
2 *54:6 *54:12 33.3143 
3 *54:12 *54:16 38.49 
4 *54:16 *54:18 42.05 
5 *54:18 *54:28 44.6864 
6 *54:28 *1501:RESET_B 25.8439 
*END

*D_NET *55 0.0147709
*CONN
*I *1502:RESET_B I *D sky130_fd_sc_hd__dfrtp_1
*I *1468:Y O *D sky130_fd_sc_hd__inv_2
*CAP
1 *1502:RESET_B 5.03054e-05
2 *1468:Y 0.0016444
3 *55:18 0.000561968
4 *55:10 0.0020909
5 *55:8 0.00157924
6 *55:6 0.0016444
7 *1502:RESET_B *1439:B 2.62876e-05
8 *1502:RESET_B *155:63 5.12055e-06
9 *55:6 *1509:RESET_B 0.00111345
10 *55:6 *186:59 0.00046313
11 *55:6 *186:78 6.17437e-06
12 *55:6 *195:33 0.00024288
13 *55:10 *1441:B1 2.17571e-05
14 *55:10 *62:8 0
15 *55:10 *94:10 0
16 *55:10 *118:26 8.47399e-05
17 *55:10 *175:34 0.00079478
18 *55:10 *175:47 0.000414525
19 *55:10 *175:62 0.000862286
20 *55:10 *180:80 0.000334622
21 *55:10 *184:27 5.2349e-05
22 *55:10 *184:38 0.000285718
23 *55:10 *184:59 3.33324e-05
24 *55:10 *213:21 0.000335294
25 *55:18 *105:66 0.000230882
26 *55:18 *105:107 0.000506072
27 *55:18 *175:34 0.000332391
28 *55:18 *216:40 9.77894e-05
29 *55:18 *216:42 0.000590785
30 *25:32 *55:6 0.000365366
31 *54:18 *55:10 0
*RES
1 *1468:Y *55:6 49.3486 
2 *55:6 *55:8 15 
3 *55:8 *55:10 37.4721 
4 *55:10 *55:18 44.3757 
5 *55:18 *1502:RESET_B 16.0461 
*END

*D_NET *56 0.00495655
*CONN
*I *1503:RESET_B I *D sky130_fd_sc_hd__dfrtp_4
*I *1469:Y O *D sky130_fd_sc_hd__inv_2
*CAP
1 *1503:RESET_B 0.0011219
2 *1469:Y 0.000445612
3 *56:8 0.00156751
4 *1503:RESET_B *77:14 0.000298919
5 *1503:RESET_B *139:14 0.000325215
6 *1503:RESET_B *157:10 0.000133516
7 *1503:RESET_B *182:72 0.000402
8 *1503:RESET_B *207:26 0
9 *1503:RESET_B *224:100 0
10 *1503:RESET_B *226:52 9.03415e-07
11 *56:8 *69:8 0.000660983
*RES
1 *1469:Y *56:8 45.2914 
2 *56:8 *1503:RESET_B 36.6257 
*END

*D_NET *57 0.0141145
*CONN
*I *1504:RESET_B I *D sky130_fd_sc_hd__dfrtp_1
*I *1470:Y O *D sky130_fd_sc_hd__inv_2
*CAP
1 *1504:RESET_B 0.00100075
2 *1470:Y 0.000434457
3 *57:14 0.0028109
4 *57:8 0.0022446
5 *1504:RESET_B *167:18 0.00132878
6 *1504:RESET_B *225:10 0.00164871
7 *57:8 *1347:B 4.64347e-05
8 *57:8 *1347:D 0.000191475
9 *57:8 *132:14 0.000595782
10 *57:8 *194:28 0.00115252
11 *57:8 *209:59 9.41704e-05
12 *57:14 *97:55 8.58827e-05
13 *57:14 *134:79 1.05441e-05
14 *57:14 *155:26 0.000135037
15 *57:14 *159:30 2.20564e-05
16 *57:14 *188:90 3.48712e-05
17 *57:14 *194:24 5.98842e-05
18 *57:14 *194:28 8.10962e-05
19 *57:14 *202:63 5.58003e-05
20 *57:14 *225:29 0.00167471
21 *57:14 *225:54 8.30586e-05
22 *38:14 *57:14 6.61934e-05
23 *46:16 *1504:RESET_B 0.000256765
*RES
1 *1470:Y *57:8 36.8579 
2 *57:8 *57:14 46.465 
3 *57:14 *1504:RESET_B 40.7996 
*END

*D_NET *58 0.00754287
*CONN
*I *1505:RESET_B I *D sky130_fd_sc_hd__dfrtp_4
*I *1472:Y O *D sky130_fd_sc_hd__inv_2
*CAP
1 *1505:RESET_B 0
2 *1472:Y 0
3 *58:10 0.00217042
4 *58:4 0.00217042
5 *58:10 *97:92 0.000138727
6 *58:10 *170:74 0.000404986
7 *58:10 *198:18 0.00019737
8 *58:10 *214:12 0.00246094
9 *21:20 *58:10 0
*RES
1 *1472:Y *58:4 23 
2 *58:4 *58:10 49.9657 
3 *58:10 *1505:RESET_B 15 
*END

*D_NET *59 0.00239611
*CONN
*I *1506:RESET_B I *D sky130_fd_sc_hd__dfrtp_2
*I *1473:Y O *D sky130_fd_sc_hd__inv_2
*CAP
1 *1506:RESET_B 0.000472989
2 *1473:Y 0.000472989
3 *1506:RESET_B *1441:A1 0.000555851
4 *1506:RESET_B *1441:A2 5.3304e-05
5 *1506:RESET_B *1506:CLK 3.73132e-05
6 *22:26 *1506:RESET_B 0.000803663
*RES
1 *1473:Y *1506:RESET_B 34.5068 
*END

*D_NET *60 0.00878742
*CONN
*I *1507:RESET_B I *D sky130_fd_sc_hd__dfrtp_4
*I *1474:Y O *D sky130_fd_sc_hd__inv_2
*CAP
1 *1507:RESET_B 0.000260655
2 *1474:Y 0.000118427
3 *60:18 0.00213591
4 *60:8 0.00199368
5 *1507:RESET_B *1441:A1 0.000107381
6 *1507:RESET_B *147:96 0.000474039
7 *1507:RESET_B *202:57 1.87537e-05
8 *60:8 *1439:B 0.000303724
9 *60:8 *180:90 0.000221992
10 *60:18 *86:10 0.000813754
11 *60:18 *130:10 0.000629358
12 *60:18 *169:26 0
13 *60:18 *177:20 0
14 *60:18 *180:90 0.000631885
15 *60:18 *180:110 0
16 *60:18 *187:89 0
17 *60:18 *193:14 0
18 *60:18 *208:14 0.000360021
19 *22:26 *1507:RESET_B 0.000717831
20 *54:28 *60:18 0
*RES
1 *1474:Y *60:8 41.48 
2 *60:8 *60:18 38.3072 
3 *60:18 *1507:RESET_B 23.1718 
*END

*D_NET *61 0.011108
*CONN
*I *1508:RESET_B I *D sky130_fd_sc_hd__dfrtp_2
*I *1475:Y O *D sky130_fd_sc_hd__inv_2
*CAP
1 *1508:RESET_B 0.00117026
2 *1475:Y 0.000466175
3 *61:16 0.00242952
4 *61:12 0.00172544
5 *1508:RESET_B *1406:C 1.95448e-05
6 *1508:RESET_B *185:22 7.72976e-05
7 *61:12 *174:38 0
8 *61:12 *178:22 0.000145163
9 *61:12 *180:12 0.000146436
10 *61:12 *206:26 1.17235e-05
11 *61:16 *95:64 5.94125e-05
12 *61:16 *157:20 8.4047e-05
13 *61:16 *158:10 0.00124001
14 *61:16 *179:24 0.000330223
15 *61:16 *180:12 2.26497e-05
16 *61:16 *181:31 0
17 *61:16 *201:45 0.000118879
18 *61:16 *206:26 0.000454139
19 *61:16 *217:18 0
20 *61:16 *226:16 0.000588876
21 *1496:D *61:12 0.000142678
22 *42:20 *1508:RESET_B 0.00102548
23 *43:24 *1508:RESET_B 0.000850011
*RES
1 *1475:Y *61:12 46.1511 
2 *61:12 *61:16 45.9575 
3 *61:16 *1508:RESET_B 22.7961 
*END

*D_NET *62 0.0108048
*CONN
*I *1509:RESET_B I *D sky130_fd_sc_hd__dfrtp_2
*I *1476:Y O *D sky130_fd_sc_hd__inv_2
*CAP
1 *1509:RESET_B 0.000524116
2 *1476:Y 0
3 *62:8 0.00196381
4 *62:6 0.00143969
5 *1509:RESET_B *151:6 0.00118322
6 *1509:RESET_B *186:59 9.8326e-05
7 *1509:RESET_B *207:36 0.000703059
8 *1509:RESET_B *207:44 9.88674e-05
9 *62:8 *89:14 0.00115719
10 *62:8 *94:10 0.000154028
11 *62:8 *105:128 0.0021475
12 *62:8 *184:38 0
13 *62:8 *184:59 0
14 *62:8 *203:39 4.08537e-05
15 *62:8 *213:21 0
16 *25:32 *1509:RESET_B 0.000180632
17 *55:6 *1509:RESET_B 0.00111345
18 *55:10 *62:8 0
*RES
1 *1476:Y *62:6 38 
2 *62:6 *62:8 36.4157 
3 *62:8 *1509:RESET_B 38.8111 
*END

*D_NET *63 0.00452637
*CONN
*I *1510:RESET_B I *D sky130_fd_sc_hd__dfrtp_2
*I *1477:Y O *D sky130_fd_sc_hd__inv_2
*CAP
1 *1510:RESET_B 0.00108972
2 *1477:Y 0.000152792
3 *63:8 0.00124251
4 *1510:RESET_B *1404:B 5.58152e-06
5 *1510:RESET_B *96:19 0.000342674
6 *1510:RESET_B *107:10 7.21237e-05
7 *1510:RESET_B *141:43 0.00030373
8 *1510:RESET_B *142:16 1.21972e-05
9 *1510:RESET_B *163:48 0.000198
10 *1510:RESET_B *165:18 0
11 *1510:RESET_B *204:47 0.000218284
12 *1510:RESET_B *205:44 0.000177514
13 *1510:RESET_B *210:89 7.06542e-05
14 *1510:RESET_B *219:44 0.000192649
15 *63:8 *180:156 0.000235687
16 *26:20 *1510:RESET_B 7.55174e-05
17 *27:8 *1510:RESET_B 0.000136738
*RES
1 *1477:Y *63:8 40.5271 
2 *63:8 *1510:RESET_B 37.9618 
*END

*D_NET *64 0.00366407
*CONN
*I *1511:RESET_B I *D sky130_fd_sc_hd__dfrtp_4
*I *1478:Y O *D sky130_fd_sc_hd__inv_2
*CAP
1 *1511:RESET_B 0.000963073
2 *1478:Y 0.000435209
3 *64:8 0.00139828
4 *1511:RESET_B *65:10 0
5 *1511:RESET_B *179:163 6.31687e-05
6 *1511:RESET_B *180:137 0
7 *1511:RESET_B *186:34 0
8 *1511:RESET_B *186:47 0
9 *1511:RESET_B *186:78 2.84479e-05
10 *1511:RESET_B *205:50 1.0092e-05
11 *64:8 *189:122 0.000213628
12 *64:8 *213:35 0.000185371
13 *22:20 *1511:RESET_B 0.000229059
14 *54:6 *1511:RESET_B 0.00013774
*RES
1 *1478:Y *64:8 44.3386 
2 *64:8 *1511:RESET_B 32.1411 
*END

*D_NET *65 0.00222011
*CONN
*I *1512:RESET_B I *D sky130_fd_sc_hd__dfrtp_4
*I *1479:Y O *D sky130_fd_sc_hd__inv_2
*CAP
1 *1512:RESET_B 2.10758e-05
2 *1479:Y 0.000532276
3 *65:10 0.000553352
4 *1512:RESET_B *177:14 9.50001e-05
5 *1512:RESET_B *189:122 5.02669e-05
6 *65:10 *134:47 0.000185368
7 *65:10 *180:137 0.000640742
8 *65:10 *205:50 0
9 *65:10 *213:25 9.41704e-05
10 *1511:RESET_B *65:10 0
11 *22:12 *65:10 4.78593e-05
*RES
1 *1479:Y *65:10 49.3514 
2 *65:10 *1512:RESET_B 16.0254 
*END

*D_NET *66 0.0110476
*CONN
*I *1513:RESET_B I *D sky130_fd_sc_hd__dfrtp_4
*I *1480:Y O *D sky130_fd_sc_hd__inv_2
*CAP
1 *1513:RESET_B 0.00110469
2 *1480:Y 0.000194864
3 *66:14 0.00331793
4 *66:8 0.0024081
5 *1513:RESET_B *107:46 0.00159635
6 *1513:RESET_B *188:65 6.1083e-05
7 *1513:RESET_B *188:81 0.000206599
8 *1513:RESET_B *203:27 0.000278727
9 *1513:RESET_B *206:24 9.41704e-05
10 *1513:RESET_B *208:41 0.000427286
11 *66:8 *76:36 8.57577e-05
12 *66:8 *165:18 1.79572e-05
13 *66:8 *200:18 0.000163256
14 *66:14 *1524:CLK 0.000135037
15 *66:14 *81:14 1.21972e-05
16 *66:14 *170:70 0.000902205
17 *66:14 *188:8 3.85021e-05
18 *66:14 *224:43 2.92911e-06
*RES
1 *1480:Y *66:8 42.0186 
2 *66:8 *66:14 42.0839 
3 *66:14 *1513:RESET_B 24.6086 
*END

*D_NET *67 0.0104626
*CONN
*I *1514:RESET_B I *D sky130_fd_sc_hd__dfrtp_4
*I *1481:Y O *D sky130_fd_sc_hd__inv_2
*CAP
1 *1514:RESET_B 0.00228209
2 *1481:Y 0
3 *67:10 0.00284987
4 *67:6 0.000567779
5 *1514:RESET_B *1399:A1 2.02872e-05
6 *1514:RESET_B *103:47 0.000303402
7 *1514:RESET_B *134:94 0.000278255
8 *1514:RESET_B *209:35 8.0381e-05
9 *1514:RESET_B *222:14 0.00190448
10 *67:10 *149:14 0.00114576
11 *67:10 *179:110 0
12 *67:10 *180:27 2.1184e-05
13 *67:10 *190:62 0.000647564
14 *67:10 *191:41 0.000110373
15 *67:10 *220:77 7.83074e-05
16 *1514:D *1514:RESET_B 0.000172885
*RES
1 *1481:Y *67:6 38 
2 *67:6 *67:10 30.9914 
3 *67:10 *1514:RESET_B 34.0646 
*END

*D_NET *68 0.0153688
*CONN
*I *1515:RESET_B I *D sky130_fd_sc_hd__dfrtp_1
*I *1483:Y O *D sky130_fd_sc_hd__inv_2
*CAP
1 *1515:RESET_B 0.0002494
2 *1483:Y 3.83684e-05
3 *68:24 0.00166549
4 *68:16 0.00304137
5 *68:8 0.00166364
6 *1515:RESET_B *76:68 0.000678584
7 *1515:RESET_B *181:81 0.000426214
8 *68:8 *201:45 5.67058e-05
9 *68:16 *88:60 0.000636155
10 *68:16 *159:30 0.000852432
11 *68:16 *181:12 0.000334682
12 *68:16 *190:58 4.95487e-06
13 *68:16 *202:57 0
14 *68:16 *225:18 0.000946744
15 *68:16 *225:29 0.00020503
16 *68:24 *1427:A 0.00018749
17 *68:24 *88:60 0.000316266
18 *68:24 *159:14 0.00109197
19 *68:24 *188:59 0
20 *68:24 *190:58 1.14977e-05
21 *68:24 *203:31 0.000374006
22 *68:24 *208:108 0.000964872
23 *68:24 *211:10 0.000420364
24 *38:14 *68:16 0.00107221
25 *48:12 *68:16 0.000130348
*RES
1 *1483:Y *68:8 38.6214 
2 *68:8 *68:16 40.6207 
3 *68:16 *68:24 49.8414 
4 *68:24 *1515:RESET_B 9.14536 
*END

*D_NET *69 0.0124032
*CONN
*I *1516:RESET_B I *D sky130_fd_sc_hd__dfrtp_2
*I *1484:Y O *D sky130_fd_sc_hd__inv_2
*CAP
1 *1516:RESET_B 0
2 *1484:Y 0
3 *69:10 0.00144995
4 *69:8 0.00273727
5 *69:4 0.00128732
6 *69:8 *147:76 0.00222456
7 *69:10 *1354:A 0.000386237
8 *69:10 *106:25 0.000102757
9 *69:10 *158:10 0.000431888
10 *69:10 *181:58 0.000638726
11 *69:10 *186:16 0.000813118
12 *69:10 *186:23 7.58755e-05
13 *69:10 *186:34 0.000162142
14 *69:10 *186:47 6.43005e-05
15 *69:10 *189:95 0.000526863
16 *69:10 *189:114 8.13127e-05
17 *69:10 *206:14 4.6318e-06
18 *69:10 *206:16 0.00050421
19 *69:10 *206:24 0.00017947
20 *47:24 *69:10 7.16228e-05
21 *56:8 *69:8 0.000660983
*RES
1 *1484:Y *69:4 23 
2 *69:4 *69:8 45.6364 
3 *69:8 *69:10 36.7679 
4 *69:10 *1516:RESET_B 15 
*END

*D_NET *70 0.0093191
*CONN
*I *1517:RESET_B I *D sky130_fd_sc_hd__dfrtp_1
*I *1485:Y O *D sky130_fd_sc_hd__inv_2
*CAP
1 *1517:RESET_B 0.000195817
2 *1485:Y 0.000226233
3 *70:32 0.000609485
4 *70:24 0.000747553
5 *70:16 0.000934395
6 *70:8 0.000826743
7 *1517:RESET_B *1434:A 0.00013704
8 *1517:RESET_B *1517:CLK 1.07585e-05
9 *1517:RESET_B *216:99 9.09342e-06
10 *70:8 *1459:B1_N 0.00021425
11 *70:8 *87:51 0.000127791
12 *70:8 *181:75 0.00033981
13 *70:16 *188:59 6.33121e-05
14 *70:16 *199:46 0.000512588
15 *70:16 *203:31 0.000466244
16 *70:16 *210:62 0.000514289
17 *70:16 *211:10 0.00016131
18 *70:24 *77:10 0.00113915
19 *70:24 *95:47 0
20 *70:24 *162:24 6.08051e-05
21 *70:24 *163:12 0.000189438
22 *70:24 *163:24 2.11157e-05
23 *70:32 *77:10 0.000171447
24 *70:32 *175:62 4.12931e-05
25 *70:32 *216:99 0.000271584
26 *1433:C1 *70:24 0.000665704
27 *48:16 *70:16 0.000575527
28 *54:18 *70:32 8.63165e-05
*RES
1 *1485:Y *70:8 43.075 
2 *70:8 *70:16 47.2757 
3 *70:16 *70:24 43.3814 
4 *70:24 *70:32 38.4929 
5 *70:32 *1517:RESET_B 18.4075 
*END

*D_NET *71 0.0108351
*CONN
*I *1518:RESET_B I *D sky130_fd_sc_hd__dfrtp_2
*I *1486:Y O *D sky130_fd_sc_hd__inv_2
*CAP
1 *1518:RESET_B 0.000600558
2 *1486:Y 0
3 *71:6 0.00370067
4 *71:4 0.00310011
5 *1518:RESET_B *109:40 0.000724879
6 *71:6 *165:43 0.00173664
7 *71:6 *181:141 0.00011268
8 *71:6 *193:22 0.000361148
9 *1518:D *1518:RESET_B 0.000135037
10 *21:20 *1518:RESET_B 0.000363413
*RES
1 *1486:Y *71:4 23 
2 *71:4 *71:6 41.1179 
3 *71:6 *1518:RESET_B 44.1789 
*END

*D_NET *72 0.0125113
*CONN
*I *1519:RESET_B I *D sky130_fd_sc_hd__dfrtp_4
*I *1487:Y O *D sky130_fd_sc_hd__inv_2
*CAP
1 *1519:RESET_B 0.004223
2 *1487:Y 0.000361556
3 *72:10 0.00458456
4 *1519:RESET_B *1445:B 0.000128865
5 *1519:RESET_B *104:16 0.000330424
6 *1519:RESET_B *112:18 0.000156142
7 *1519:RESET_B *131:24 0.000435102
8 *1519:RESET_B *178:22 0.000108415
9 *1519:RESET_B *210:16 0.000227734
10 *1519:RESET_B *215:8 9.28078e-06
11 *72:10 *100:14 2.11066e-05
12 *72:10 *179:60 0.000374973
13 *1496:D *1519:RESET_B 0.000107106
14 *39:12 *1519:RESET_B 0.00144302
*RES
1 *1487:Y *72:10 45.6125 
2 *72:10 *1519:RESET_B 44.2216 
*END

*D_NET *73 0.00290438
*CONN
*I *1520:RESET_B I *D sky130_fd_sc_hd__dfrtp_4
*I *1488:Y O *D sky130_fd_sc_hd__inv_2
*CAP
1 *1520:RESET_B 0.000768189
2 *1488:Y 0
3 *73:6 0.000768189
4 *1520:RESET_B *106:31 0.001368
5 *1520:RESET_B *192:10 0
6 *1520:RESET_B *226:60 0
*RES
1 *1488:Y *73:6 38 
2 *73:6 *1520:RESET_B 33.4564 
*END

*D_NET *74 0.0148349
*CONN
*I *1521:RESET_B I *D sky130_fd_sc_hd__dfrtp_1
*I *1489:Y O *D sky130_fd_sc_hd__inv_2
*CAP
1 *1521:RESET_B 0.00113693
2 *1489:Y 0.000537415
3 *74:20 0.00236114
4 *74:16 0.00177806
5 *74:8 0.00109127
6 *1521:RESET_B *1383:C 0.000721115
7 *1521:RESET_B *179:10 0.000135037
8 *1521:RESET_B *179:110 0.000543419
9 *1521:RESET_B *191:30 0.000818621
10 *1521:RESET_B *191:41 0.000805239
11 *74:8 *181:187 0.000190005
12 *74:16 *97:92 0.00101337
13 *74:16 *170:74 0.00143537
14 *74:16 *198:18 0.000200735
15 *74:20 *1376:B 2.64616e-05
16 *74:20 *122:6 0.00112093
17 *74:20 *185:70 0.000226306
18 *1518:D *74:16 4.67488e-05
19 *1518:D *74:20 0.000298674
20 *47:134 *74:8 0.000347998
*RES
1 *1489:Y *74:8 45.7679 
2 *74:8 *74:16 35.7557 
3 *74:16 *74:20 24.8157 
4 *74:20 *1521:RESET_B 26.2761 
*END

*D_NET *75 0.00161809
*CONN
*I *1522:RESET_B I *D sky130_fd_sc_hd__dfrtp_4
*I *1490:Y O *D sky130_fd_sc_hd__inv_2
*CAP
1 *1522:RESET_B 0.000430184
2 *1490:Y 0.000430184
3 *1522:RESET_B *1335:A 0.000502345
4 *1522:RESET_B *82:12 0.000102389
5 *1522:RESET_B *181:31 0.000152986
*RES
1 *1490:Y *1522:RESET_B 30.6954 
*END

*D_NET *76 0.0222354
*CONN
*I *1523:RESET_B I *D sky130_fd_sc_hd__dfrtp_4
*I *1491:Y O *D sky130_fd_sc_hd__inv_2
*CAP
1 *1523:RESET_B 0.000116413
2 *1491:Y 0.00025626
3 *76:68 0.00173569
4 *76:50 0.00247325
5 *76:42 0.00246097
6 *76:36 0.00272369
7 *76:28 0.00137021
8 *76:18 0.00133615
9 *76:12 0.00133888
10 *76:12 *179:39 0.000206171
11 *76:12 *194:28 5.56279e-05
12 *76:12 *209:59 0.000175147
13 *76:18 *133:10 0
14 *76:18 *165:18 3.78848e-05
15 *76:18 *170:70 0.000135037
16 *76:18 *200:18 0.000921618
17 *76:18 *209:59 0.00059164
18 *76:28 *1377:B 9.66668e-05
19 *76:28 *165:18 0.000260838
20 *76:28 *204:47 0
21 *76:36 *133:10 0
22 *76:36 *150:38 4.95356e-05
23 *76:36 *163:48 0
24 *76:36 *165:18 0.00124396
25 *76:36 *210:106 6.87712e-05
26 *76:36 *219:44 0
27 *76:42 *1455:A 0.000215491
28 *76:42 *139:14 0.000308849
29 *76:42 *187:152 0.000467715
30 *76:42 *207:26 0
31 *76:42 *207:73 0.00017238
32 *76:50 *181:75 3.71852e-05
33 *76:50 *181:92 0.000156418
34 *76:50 *188:29 0.000139947
35 *76:68 *1523:D 0.000569112
36 *76:68 *181:81 0.000748621
37 *76:68 *181:92 8.55549e-05
38 *76:68 *211:8 0.000265293
39 *1515:RESET_B *76:68 0.000678584
40 *22:20 *76:50 2.39882e-05
41 *32:22 *1523:RESET_B 9.20608e-05
42 *32:22 *76:68 2.58554e-05
43 *47:12 *76:50 5.01029e-05
44 *47:12 *76:68 5.5792e-05
45 *47:24 *76:68 0.000402252
46 *66:8 *76:36 8.57577e-05
*RES
1 *1491:Y *76:12 42.6814 
2 *76:12 *76:18 38.5521 
3 *76:18 *76:28 49.7643 
4 *76:28 *76:36 38.4486 
5 *76:36 *76:42 38.5729 
6 *76:42 *76:50 44.21 
7 *76:50 *76:68 48.4121 
8 *76:68 *1523:RESET_B 1.97821 
*END

*D_NET *77 0.0128527
*CONN
*I *1524:RESET_B I *D sky130_fd_sc_hd__dfrtp_4
*I *1492:Y O *D sky130_fd_sc_hd__inv_2
*CAP
1 *1524:RESET_B 0
2 *1492:Y 0
3 *77:14 0.00117906
4 *77:10 0.00240916
5 *77:4 0.00123009
6 *77:10 *1432:A 0.000182673
7 *77:10 *93:6 0.00274017
8 *77:10 *163:12 0.000298178
9 *77:10 *179:127 0.000602176
10 *77:10 *207:16 0.000181692
11 *77:14 *141:35 0.000159186
12 *77:14 *149:14 0.000441293
13 *77:14 *157:10 0.00131874
14 *77:14 *190:62 0
15 *77:14 *207:73 0.000500805
16 *1503:RESET_B *77:14 0.000298919
17 *70:24 *77:10 0.00113915
18 *70:32 *77:10 0.000171447
*RES
1 *1492:Y *77:4 23 
2 *77:4 *77:10 40.8071 
3 *77:10 *77:14 42.9643 
4 *77:14 *1524:RESET_B 15 
*END

*D_NET *78 0.00777049
*CONN
*I *1525:RESET_B I *D sky130_fd_sc_hd__dfrtp_4
*I *1493:Y O *D sky130_fd_sc_hd__inv_2
*CAP
1 *1525:RESET_B 5.97082e-05
2 *1493:Y 0.00052781
3 *78:10 0.000919242
4 *78:6 0.00138734
5 *1525:RESET_B *170:58 5.99316e-05
6 *1525:RESET_B *216:24 0.000178606
7 *78:6 *88:64 0.00107471
8 *78:6 *144:12 0.000700112
9 *78:10 *85:10 4.95487e-06
10 *78:10 *85:20 0.000707375
11 *78:10 *131:24 0.000131276
12 *78:10 *172:22 6.85548e-05
13 *78:10 *189:18 0.000272074
14 *78:10 *189:85 2.96406e-05
15 *78:10 *211:35 0.0016086
16 *49:12 *78:6 4.05481e-05
*RES
1 *1493:Y *78:6 36.485 
2 *78:6 *78:10 37.6821 
3 *78:10 *1525:RESET_B 16.9782 
*END

*D_NET *79 0.018744
*CONN
*I *1526:RESET_B I *D sky130_fd_sc_hd__dfrtp_4
*I *1494:Y O *D sky130_fd_sc_hd__inv_2
*CAP
1 *1526:RESET_B 0.00406617
2 *1494:Y 0
3 *79:10 0.00624714
4 *79:6 0.00218097
5 *1526:RESET_B *86:10 0
6 *1526:RESET_B *103:24 0.00197173
7 *1526:RESET_B *103:34 0.000357801
8 *1526:RESET_B *109:38 0.00136009
9 *1526:RESET_B *124:30 0.00148146
10 *1526:RESET_B *126:28 4.93248e-05
11 *1526:RESET_B *174:22 0.000143236
12 *1526:RESET_B *182:12 0.000355328
13 *1526:RESET_B *182:34 1.29843e-05
14 *1526:RESET_B *208:14 0
15 *79:10 *86:40 0.000192236
16 *79:10 *109:40 0
17 *79:10 *115:101 0
18 *79:10 *117:26 0
19 *79:10 *154:10 0
20 *79:10 *185:70 0.000227385
21 *21:20 *79:10 0
22 *29:32 *1526:RESET_B 9.81871e-05
*RES
1 *1494:Y *79:6 38 
2 *79:6 *79:10 47.7611 
3 *79:10 *1526:RESET_B 35.921 
*END

*D_NET *80 0.0119021
*CONN
*I *1523:D I *D sky130_fd_sc_hd__dfrtp_4
*I *1339:Y O *D sky130_fd_sc_hd__a21oi_1
*CAP
1 *1523:D 0.000166768
2 *1339:Y 0.000813336
3 *80:14 0.00155374
4 *80:8 0.0022003
5 *1523:D *1515:CLK 0.000355813
6 *80:8 *1339:B1 0.000110304
7 *80:8 *117:10 5.64763e-05
8 *80:8 *120:62 0.000603225
9 *80:8 *121:10 2.60099e-05
10 *80:8 *224:18 0.0019558
11 *80:14 *1369:A 9.41704e-05
12 *80:14 *86:10 0
13 *80:14 *88:12 3.21591e-05
14 *80:14 *117:10 1.34914e-05
15 *80:14 *177:20 0.00119651
16 *80:14 *181:81 0.000162254
17 *80:14 *187:34 0.000121723
18 *80:14 *190:109 0.000221084
19 *80:14 *193:14 0.000531919
20 *80:14 *215:45 0.000196427
21 *80:14 *216:105 8.49072e-05
22 *80:14 *224:18 9.51273e-05
23 *80:14 *224:24 0.000616673
24 *32:22 *1523:D 0.000112537
25 *53:12 *80:8 1.21972e-05
26 *54:18 *80:14 0
27 *76:68 *1523:D 0.000569112
*RES
1 *1339:Y *80:8 45.5579 
2 *80:8 *80:14 48.5571 
3 *80:14 *1523:D 44.3386 
*END

*D_NET *81 0.00662084
*CONN
*I *1524:D I *D sky130_fd_sc_hd__dfrtp_4
*I *1337:Y O *D sky130_fd_sc_hd__nor2_1
*CAP
1 *1524:D 0
2 *1337:Y 0.000430495
3 *81:14 0.00115617
4 *81:8 0.00158666
5 *81:8 *167:18 0.000517237
6 *81:14 *1524:CLK 6.17437e-06
7 *81:14 *84:82 0.00025717
8 *81:14 *88:74 0.000771865
9 *81:14 *97:10 0.000242892
10 *81:14 *97:12 0.000159274
11 *81:14 *131:24 2.11066e-05
12 *81:14 *157:10 7.30385e-06
13 *81:14 *157:14 0
14 *81:14 *173:10 0.000199009
15 *81:14 *174:22 0.000142858
16 *81:14 *185:22 0.000999917
17 *81:14 *224:43 2.64616e-05
18 *81:14 *224:53 8.4047e-05
19 *66:14 *81:14 1.21972e-05
*RES
1 *1337:Y *81:8 43.8621 
2 *81:8 *81:14 42.8814 
3 *81:14 *1524:D 23 
*END

*D_NET *82 0.0063728
*CONN
*I *1525:D I *D sky130_fd_sc_hd__dfrtp_4
*I *1335:X O *D sky130_fd_sc_hd__clkbuf_1
*CAP
1 *1525:D 0
2 *1335:X 0.000345144
3 *82:18 0.00155779
4 *82:12 0.00190294
5 *82:12 *156:10 0.000135616
6 *82:12 *156:29 2.4508e-05
7 *82:12 *168:32 3.95707e-06
8 *82:12 *181:31 2.46906e-05
9 *82:12 *181:44 0.000253535
10 *82:18 *126:28 2.27289e-05
11 *82:18 *156:29 0.000168556
12 *82:18 *156:31 0.00155209
13 *82:18 *170:58 0.000193145
14 *82:18 *181:44 5.08266e-05
15 *82:18 *209:35 3.48912e-05
16 *82:18 *212:10 0
17 *1522:RESET_B *82:12 0.000102389
*RES
1 *1335:X *82:12 44.5354 
2 *82:12 *82:18 43.2854 
3 *82:18 *1525:D 23 
*END

*D_NET *83 0.00738833
*CONN
*I *1526:D I *D sky130_fd_sc_hd__dfrtp_4
*I *1329:Y O *D sky130_fd_sc_hd__xnor2_1
*CAP
1 *1526:D 0
2 *1329:Y 0
3 *83:8 0.00245612
4 *83:4 0.00245612
5 *83:8 *1526:CLK 4.27352e-05
6 *83:8 *190:48 2.98041e-05
7 *83:8 *190:58 0.0023166
8 *83:8 *190:73 8.6949e-05
*RES
1 *1329:Y *83:4 23 
2 *83:4 *83:8 33.5157 
3 *83:8 *1526:D 23 
*END

*D_NET *84 0.0326061
*CONN
*I *1337:A I *D sky130_fd_sc_hd__nor2_1
*I *1333:B1 I *D sky130_fd_sc_hd__o2bb2a_1
*I *1328:B I *D sky130_fd_sc_hd__nand2_1
*I *1327:X O *D sky130_fd_sc_hd__and3_2
*CAP
1 *1337:A 0.000133877
2 *1333:B1 0.000124054
3 *1328:B 7.30131e-05
4 *1327:X 0.0004476
5 *84:82 0.00137808
6 *84:78 0.00161322
7 *84:57 0.00152005
8 *84:47 0.00182268
9 *84:37 0.000756054
10 *84:20 0.000903468
11 *84:14 0.00184193
12 *84:12 0.00159339
13 *84:6 0.00106916
14 *1328:B *92:8 0.000116854
15 *1328:B *187:128 0.000150285
16 *1333:B1 *88:24 2.81066e-05
17 *1333:B1 *94:10 2.31116e-05
18 *1333:B1 *105:128 2.11066e-05
19 *1333:B1 *189:99 7.28721e-05
20 *1337:A *149:31 0.000388739
21 *1337:A *167:18 0.000388739
22 *84:6 *181:98 0.000521774
23 *84:6 *188:116 0.00132497
24 *84:12 *1422:D 6.48142e-05
25 *84:12 *133:10 0.000419204
26 *84:12 *199:120 0.000212341
27 *84:12 *206:69 0.000238454
28 *84:12 *207:81 0.000195238
29 *84:14 *141:35 0.000666931
30 *84:14 *142:22 0.000596729
31 *84:14 *207:100 5.50106e-05
32 *84:20 *141:35 9.41704e-05
33 *84:20 *187:128 0.000589669
34 *84:37 *108:18 0
35 *84:37 *156:31 0.000152296
36 *84:37 *156:39 9.93864e-05
37 *84:37 *156:56 5.09373e-05
38 *84:37 *199:46 0.00044586
39 *84:37 *211:27 7.44257e-05
40 *84:47 *1357:A 0.000136486
41 *84:47 *189:114 8.48502e-06
42 *84:47 *198:10 0.000219383
43 *84:47 *210:62 0.000207738
44 *84:57 *1459:A1 1.40958e-05
45 *84:57 *150:28 7.57281e-06
46 *84:57 *163:24 0
47 *84:57 *175:51 0.00162077
48 *84:57 *177:20 5.58152e-06
49 *84:57 *189:99 0.00170489
50 *84:57 *189:114 2.64616e-05
51 *84:57 *203:62 5.61255e-06
52 *84:57 *219:14 0.000220603
53 *84:78 *149:14 0.00054021
54 *84:78 *180:58 0.000394195
55 *84:78 *190:62 0.00054021
56 *84:78 *216:24 0.000391698
57 *84:82 *97:10 0.000235091
58 *84:82 *97:12 0.000204947
59 *84:82 *115:132 3.01561e-05
60 *84:82 *182:72 1.28507e-05
61 *84:82 *185:16 0.000325559
62 *84:82 *185:22 0.0010571
63 *84:82 *224:43 0.000392619
64 *84:82 *224:59 0.00186533
65 *1394:A *84:12 4.15283e-06
66 *22:20 *84:47 0.000331991
67 *47:93 *84:12 0.000485259
68 *50:16 *1328:B 5.3304e-05
69 *50:16 *84:14 0.000150964
70 *50:16 *84:20 0.000855231
71 *50:16 *84:37 3.18198e-05
72 *81:14 *84:82 0.00025717
*RES
1 *1327:X *84:6 38.3907 
2 *84:6 *84:12 48.1043 
3 *84:12 *84:14 18.7257 
4 *84:14 *84:20 12.2214 
5 *84:20 *1328:B 25.9518 
6 *84:20 *84:37 38.3686 
7 *84:37 *84:47 38.2236 
8 *84:47 *84:57 44.8588 
9 *84:57 *1333:B1 48.3718 
10 *84:14 *84:78 41.9729 
11 *84:78 *84:82 49.3029 
12 *84:82 *1337:A 42.4329 
*END

*D_NET *85 0.0187176
*CONN
*I *1329:B I *D sky130_fd_sc_hd__xnor2_1
*I *1334:A I *D sky130_fd_sc_hd__and2_1
*I *1328:Y O *D sky130_fd_sc_hd__nand2_1
*CAP
1 *1329:B 0
2 *1334:A 0
3 *1328:Y 8.07593e-05
4 *85:33 0.000625843
5 *85:24 0.000905774
6 *85:20 0.0021673
7 *85:10 0.00246076
8 *85:8 0.000654157
9 *85:8 *187:128 9.5877e-05
10 *85:10 *87:22 1.01169e-05
11 *85:10 *87:24 5.72725e-05
12 *85:10 *87:51 0.000100115
13 *85:10 *121:10 0.000367568
14 *85:10 *189:18 0.000578014
15 *85:10 *189:85 0.000549214
16 *85:10 *203:27 0.000180038
17 *85:10 *211:35 2.0823e-05
18 *85:20 *124:30 0.000111145
19 *85:20 *131:24 0.000268351
20 *85:20 *171:10 0
21 *85:20 *172:22 8.34222e-05
22 *85:20 *189:28 0.000848569
23 *85:20 *189:32 0.000356535
24 *85:20 *203:27 0.000333187
25 *85:20 *211:35 1.97139e-05
26 *85:20 *217:10 6.08032e-05
27 *85:24 *1334:B 0.000100061
28 *85:24 *129:16 0.00213072
29 *85:24 *217:18 0.000599331
30 *85:24 *217:41 8.52481e-05
31 *85:33 *189:18 0.000358904
32 *85:33 *190:58 0.000791524
33 *85:33 *190:73 0.000116554
34 *85:33 *221:37 0.00105351
35 *22:20 *85:10 0.000106814
36 *23:14 *85:20 0.0017273
37 *78:10 *85:10 4.95487e-06
38 *78:10 *85:20 0.000707375
*RES
1 *1328:Y *85:8 39.0979 
2 *85:8 *85:10 15.9914 
3 *85:10 *85:20 47.8584 
4 *85:20 *85:24 38.9664 
5 *85:24 *1334:A 23 
6 *85:10 *85:33 34.2021 
7 *85:33 *1329:B 23 
*END

*D_NET *86 0.0301407
*CONN
*I *1454:B1 I *D sky130_fd_sc_hd__a21oi_1
*I *1331:B I *D sky130_fd_sc_hd__nand2_2
*I *1330:Y O *D sky130_fd_sc_hd__nor2_2
*CAP
1 *1454:B1 0
2 *1331:B 0
3 *1330:Y 4.24857e-05
4 *86:55 0.000537295
5 *86:40 0.000260675
6 *86:34 0.0063562
7 *86:22 0.00672453
8 *86:10 0.00288779
9 *86:8 0.00176397
10 *86:8 *113:26 5.50106e-05
11 *86:10 *95:47 0
12 *86:10 *113:26 0
13 *86:10 *150:28 0.000703883
14 *86:10 *160:33 0.000225211
15 *86:10 *160:37 0.00221254
16 *86:10 *177:20 0
17 *86:10 *188:50 6.07397e-05
18 *86:10 *190:115 0
19 *86:10 *216:105 0
20 *86:22 *95:24 0.000153714
21 *86:22 *103:47 7.82513e-05
22 *86:22 *127:12 0.000263224
23 *86:22 *160:33 0.000422273
24 *86:22 *183:51 0.000119073
25 *86:22 *183:68 0.000218952
26 *86:22 *209:35 0.000122638
27 *86:34 *1429:C 0.000357773
28 *86:34 *110:24 0.000261826
29 *86:34 *127:12 0.000699728
30 *86:34 *160:33 0.000334491
31 *86:34 *168:20 0.00012589
32 *86:34 *169:26 0.000267789
33 *86:34 *169:34 0.00182645
34 *86:34 *195:33 1.92442e-05
35 *86:34 *200:30 8.79918e-05
36 *86:40 *109:40 0
37 *86:55 *105:70 0.00060954
38 *86:55 *125:18 2.43944e-05
39 *86:55 *187:89 0.000143378
40 *86:55 *191:18 0.000272523
41 *86:55 *194:8 6.2618e-05
42 *86:55 *223:25 0.000775619
43 *1526:RESET_B *86:10 0
44 *21:20 *86:40 5.69614e-05
45 *29:32 *86:10 0
46 *29:32 *86:22 0
47 *44:20 *86:22 0
48 *54:28 *86:10 0
49 *60:18 *86:10 0.000813754
50 *79:10 *86:40 0.000192236
51 *80:14 *86:10 0
*RES
1 *1330:Y *86:8 38.6214 
2 *86:8 *86:10 40.2893 
3 *86:10 *86:22 43.8268 
4 *86:22 *86:34 46.6535 
5 *86:34 *86:40 28.6032 
6 *86:40 *1331:B 23 
7 *86:10 *86:55 29.935 
8 *86:55 *1454:B1 23 
*END

*D_NET *87 0.0249073
*CONN
*I *1459:B1_N I *D sky130_fd_sc_hd__a21boi_2
*I *1338:A2 I *D sky130_fd_sc_hd__a21oi_1
*I *1332:B I *D sky130_fd_sc_hd__nor2_1
*I *1331:Y O *D sky130_fd_sc_hd__nand2_2
*CAP
1 *1459:B1_N 0.000376088
2 *1338:A2 4.45235e-05
3 *1332:B 0
4 *1331:Y 1.71961e-05
5 *87:51 0.000950123
6 *87:44 0.000172553
7 *87:32 0.00129947
8 *87:24 0.00172748
9 *87:22 0.00536452
10 *87:10 0.00531067
11 *1338:A2 *1338:A1 5.3304e-05
12 *1338:A2 *187:111 2.02872e-05
13 *1338:A2 *189:95 9.41704e-05
14 *1459:B1_N *1357:A 0.000168066
15 *1459:B1_N *181:75 0.00017592
16 *1459:B1_N *189:85 9.28078e-06
17 *1459:B1_N *210:62 0.000233345
18 *87:10 *109:40 2.33476e-05
19 *87:22 *97:61 0.000435681
20 *87:22 *105:20 0.000234438
21 *87:22 *109:38 0.000175416
22 *87:22 *131:24 0.000154794
23 *87:22 *139:26 1.26232e-05
24 *87:22 *169:34 0.00049699
25 *87:22 *171:10 0.0017217
26 *87:22 *174:30 0.000158154
27 *87:22 *181:52 0.000125168
28 *87:22 *181:58 0.000361089
29 *87:22 *203:27 0.000114862
30 *87:22 *206:26 2.12988e-05
31 *87:22 *226:80 9.8483e-05
32 *87:24 *107:40 8.36198e-05
33 *87:24 *181:58 7.02441e-06
34 *87:32 *88:60 0.00046579
35 *87:32 *107:34 5.3304e-05
36 *87:32 *130:20 4.32222e-05
37 *87:32 *182:53 0.000110258
38 *87:32 *199:48 0.000108129
39 *87:44 *109:18 7.51453e-06
40 *87:44 *130:20 0.000261206
41 *87:44 *184:97 4.84545e-05
42 *87:44 *184:99 9.28078e-06
43 *87:44 *187:34 2.31765e-05
44 *87:51 *107:40 2.45092e-05
45 *87:51 *121:10 0.00036985
46 *87:51 *181:58 0.000175791
47 *87:51 *181:75 1.74959e-05
48 *87:51 *189:85 0.000251677
49 *11:17 *87:22 0.000409239
50 *22:20 *1459:B1_N 4.45675e-05
51 *29:12 *87:22 0.00124709
52 *29:32 *87:22 0.000157326
53 *33:16 *87:44 0.000328215
54 *70:8 *1459:B1_N 0.00021425
55 *70:8 *87:51 0.000127791
56 *85:10 *87:22 1.01169e-05
57 *85:10 *87:24 5.72725e-05
58 *85:10 *87:51 0.000100115
*RES
1 *1331:Y *87:10 46.3211 
2 *87:10 *87:22 48.8942 
3 *87:22 *87:24 1.72964 
4 *87:24 *87:32 44.0857 
5 *87:32 *87:44 49.4743 
6 *87:44 *1332:B 23 
7 *87:24 *87:51 12.1179 
8 *87:51 *1338:A2 39.0979 
9 *87:51 *1459:B1_N 46.5964 
*END

*D_NET *88 0.0218882
*CONN
*I *1452:B1 I *D sky130_fd_sc_hd__a2111o_2
*I *1453:A I *D sky130_fd_sc_hd__nor2_1
*I *1333:A2_N I *D sky130_fd_sc_hd__o2bb2a_1
*I *1332:Y O *D sky130_fd_sc_hd__nor2_1
*CAP
1 *1452:B1 0
2 *1453:A 2.67863e-05
3 *1333:A2_N 0
4 *1332:Y 4.13219e-05
5 *88:74 0.000709779
6 *88:64 0.00139971
7 *88:60 0.00180421
8 *88:50 0.00149968
9 *88:24 0.000850858
10 *88:14 0.000877644
11 *88:12 0.000862151
12 *88:6 0.00128887
13 *1453:A *1453:B 4.2573e-05
14 *88:6 *109:18 8.5258e-05
15 *88:6 *130:20 2.04034e-05
16 *88:12 *109:18 0.000656526
17 *88:12 *130:20 0.000118935
18 *88:12 *148:16 6.51997e-06
19 *88:12 *184:82 8.36198e-05
20 *88:12 *193:14 0.000994243
21 *88:24 *1453:B 0.000219383
22 *88:24 *94:10 0.000484002
23 *88:24 *176:12 0.000247855
24 *88:24 *189:99 3.70071e-06
25 *88:50 *95:36 8.91416e-05
26 *88:50 *153:10 2.05503e-05
27 *88:50 *182:53 0
28 *88:50 *187:44 4.12594e-05
29 *88:50 *208:14 4.85862e-05
30 *88:50 *210:56 2.26406e-05
31 *88:50 *220:40 0
32 *88:60 *1516:CLK 0.00046579
33 *88:60 *159:30 0.00026506
34 *88:60 *203:31 0.000187397
35 *88:64 *115:20 0.000175903
36 *88:64 *144:12 7.65159e-05
37 *88:64 *153:16 0.000641362
38 *88:64 *156:29 9.41704e-05
39 *88:64 *189:26 0.000316338
40 *88:74 *1447:A 0.000640203
41 *88:74 *97:12 9.03765e-06
42 *88:74 *157:14 5.52162e-06
43 *88:74 *167:18 0.000517593
44 *88:74 *173:10 0.000352987
45 *88:74 *174:22 0.000124574
46 *88:74 *176:43 6.64565e-05
47 *1333:B1 *88:24 2.81066e-05
48 *23:20 *88:60 0.000455384
49 *33:16 *88:60 6.08617e-05
50 *48:12 *88:60 4.85444e-05
51 *48:16 *88:60 0.000276604
52 *49:12 *88:64 0.000664886
53 *54:18 *88:12 0.00043671
54 *54:28 *88:12 0.000135037
55 *68:16 *88:60 0.000636155
56 *68:24 *88:60 0.000316266
57 *78:6 *88:64 0.00107471
58 *80:14 *88:12 3.21591e-05
59 *81:14 *88:74 0.000771865
60 *87:32 *88:60 0.00046579
*RES
1 *1332:Y *88:6 24.0979 
2 *88:6 *88:12 37.2264 
3 *88:12 *88:14 15 
4 *88:14 *88:24 46.3021 
5 *88:24 *1333:A2_N 23 
6 *88:14 *1453:A 23.6214 
7 *88:6 *88:50 47.2992 
8 *88:50 *88:60 41.7421 
9 *88:60 *88:64 36.1079 
10 *88:64 *88:74 49.8029 
11 *88:74 *1452:B1 23 
*END

*D_NET *89 0.012621
*CONN
*I *1334:B I *D sky130_fd_sc_hd__and2_1
*I *1333:X O *D sky130_fd_sc_hd__o2bb2a_1
*CAP
1 *1334:B 0.000352399
2 *1333:X 9.91387e-05
3 *89:14 0.00217244
4 *89:12 0.00191918
5 *1334:B *115:40 0.000474118
6 *1334:B *129:16 0.000382061
7 *1334:B *129:20 6.17437e-06
8 *89:12 *189:99 2.93845e-05
9 *89:12 *226:71 5.50106e-05
10 *89:14 *105:128 9.29474e-05
11 *89:14 *125:18 0.000723664
12 *89:14 *130:10 0.0027401
13 *89:14 *169:8 0.00040349
14 *89:14 *184:27 5.72967e-05
15 *89:14 *184:38 0.000186845
16 *89:14 *215:31 0.00166955
17 *62:8 *89:14 0.00115719
18 *85:24 *1334:B 0.000100061
*RES
1 *1333:X *89:12 39.74 
2 *89:12 *89:14 56.1357 
3 *89:14 *1334:B 47.1971 
*END

*D_NET *90 0.00627654
*CONN
*I *1335:A I *D sky130_fd_sc_hd__clkbuf_1
*I *1334:X O *D sky130_fd_sc_hd__and2_1
*CAP
1 *1335:A 0.00105269
2 *1334:X 0.000216533
3 *90:18 0.00138478
4 *90:8 0.00054863
5 *1335:A *1522:CLK 9.77405e-05
6 *1335:A *181:31 0.000239354
7 *1335:A *194:20 0.000292776
8 *1335:A *199:56 0.00038091
9 *1335:A *199:62 0.000155492
10 *1335:A *226:6 5.3304e-05
11 *1335:A *226:10 0.000175903
12 *90:8 *103:63 6.78755e-06
13 *90:8 *103:73 0.000473472
14 *90:8 *127:12 0.000494794
15 *90:18 *127:12 0.000100931
16 *90:18 *135:10 7.0561e-05
17 *90:18 *187:66 0
18 *1522:D *1335:A 2.95423e-05
19 *1522:RESET_B *1335:A 0.000502345
*RES
1 *1334:X *90:8 44.8357 
2 *90:8 *90:18 49.8886 
3 *90:18 *1335:A 44.9157 
*END

*D_NET *91 0.00739031
*CONN
*I *1337:B I *D sky130_fd_sc_hd__nor2_1
*I *1336:Y O *D sky130_fd_sc_hd__a21oi_1
*CAP
1 *1337:B 0
2 *1336:Y 0.000836387
3 *91:22 0.000894219
4 *91:14 0.00108537
5 *91:6 0.00102753
6 *91:6 *99:14 5.56356e-05
7 *91:6 *102:16 0.000280202
8 *91:6 *174:30 0.000395517
9 *91:14 *99:10 0.000106748
10 *91:14 *143:14 0
11 *91:14 *180:12 5.56356e-05
12 *91:14 *180:25 0.000365588
13 *91:14 *191:93 1.14452e-05
14 *91:14 *200:46 8.36198e-05
15 *91:14 *201:56 0.000405204
16 *91:22 *137:18 0
17 *91:22 *143:14 0.000133316
18 *91:22 *149:31 5.56356e-05
19 *91:22 *156:10 0.00121382
20 *91:22 *167:18 0.000137368
21 *91:22 *176:43 4.21158e-05
22 *91:22 *189:28 0
23 *91:22 *189:32 0
24 *91:22 *191:93 0
25 *31:16 *91:14 1.51076e-05
26 *38:8 *91:6 0.000189848
*RES
1 *1336:Y *91:6 35.5321 
2 *91:6 *91:14 36.6907 
3 *91:14 *91:22 48.6221 
4 *91:22 *1337:B 23 
*END

*D_NET *92 0.00318673
*CONN
*I *1339:B1 I *D sky130_fd_sc_hd__a21oi_1
*I *1338:Y O *D sky130_fd_sc_hd__a21oi_1
*CAP
1 *1339:B1 0.000444338
2 *1338:Y 0.000173599
3 *92:8 0.000617937
4 *1339:B1 *103:8 3.10411e-05
5 *1339:B1 *120:62 0.000109548
6 *1339:B1 *156:31 0.000444038
7 *1339:B1 *180:58 0
8 *1339:B1 *180:125 0
9 *92:8 *1328:A 4.5051e-05
10 *92:8 *187:128 2.05853e-05
11 *92:8 *189:95 5.67058e-05
12 *1328:B *92:8 0.000116854
13 *30:6 *92:8 0.00056846
14 *50:16 *92:8 0.000135037
15 *53:12 *1339:B1 0.000313236
16 *80:8 *1339:B1 0.000110304
*RES
1 *1338:Y *92:8 44.3386 
2 *92:8 *1339:B1 47.9636 
*END

*D_NET *93 0.0213527
*CONN
*I *1448:A1 I *D sky130_fd_sc_hd__a21o_1
*I *1352:A1 I *D sky130_fd_sc_hd__a21bo_2
*I *1340:Y O *D sky130_fd_sc_hd__inv_2
*CAP
1 *1448:A1 8.81957e-05
2 *1352:A1 0
3 *1340:Y 0
4 *93:18 0.00101106
5 *93:14 0.00219935
6 *93:6 0.00409865
7 *93:4 0.00299856
8 *1448:A1 *174:8 9.41704e-05
9 *93:6 *1432:A 4.62036e-05
10 *93:6 *179:127 0.000957339
11 *93:14 *104:41 6.12484e-05
12 *93:14 *147:72 0.000870787
13 *93:14 *170:64 0.000135953
14 *93:14 *188:21 0.000939928
15 *93:14 *206:49 2.26406e-05
16 *93:18 *1452:A1 5.15096e-05
17 *93:18 *104:37 0.000191447
18 *93:18 *104:41 0.00204972
19 *93:18 *168:40 5.95645e-05
20 *93:18 *188:12 0.00201733
21 *93:18 *188:21 0.000165956
22 *93:18 *189:59 0.000138708
23 *51:8 *93:14 0.00041419
24 *77:10 *93:6 0.00274017
*RES
1 *1340:Y *93:4 23 
2 *93:4 *93:6 44.4529 
3 *93:6 *93:14 43.0264 
4 *93:14 *93:18 47.8943 
5 *93:18 *1352:A1 23 
6 *93:14 *1448:A1 39.0979 
*END

*D_NET *94 0.0201798
*CONN
*I *1351:A1 I *D sky130_fd_sc_hd__o211ai_4
*I *1341:X O *D sky130_fd_sc_hd__a21o_1
*CAP
1 *1351:A1 0.000108039
2 *1341:X 0.00119508
3 *94:20 0.00133895
4 *94:16 0.00146111
5 *94:10 0.00242292
6 *94:8 0.00219272
7 *94:6 0.00119508
8 *1351:A1 *112:10 0.000245218
9 *1351:A1 *143:8 0.000450337
10 *94:6 *1341:B1 1.94812e-05
11 *94:6 *207:46 0.000568243
12 *94:6 *208:123 3.52233e-06
13 *94:10 *1451:B 0.000223128
14 *94:10 *105:128 0.000681641
15 *94:10 *130:10 0.000186886
16 *94:10 *166:10 0
17 *94:10 *168:55 0.000205648
18 *94:10 *168:70 0.000536253
19 *94:10 *176:12 8.20529e-05
20 *94:10 *180:90 0.00105653
21 *94:10 *187:18 0.000363849
22 *94:10 *187:89 1.58785e-05
23 *94:10 *194:12 0.00071447
24 *94:10 *196:10 0.000701847
25 *94:10 *196:16 0
26 *94:10 *218:20 0.000244187
27 *94:16 *134:73 0.000139745
28 *94:20 *144:16 0.000827183
29 *94:20 *210:29 0
30 *94:20 *215:8 5.98919e-05
31 *94:20 *215:31 0.00227878
32 *1333:B1 *94:10 2.31116e-05
33 *41:22 *94:10 0
34 *55:10 *94:10 0
35 *62:8 *94:10 0.000154028
36 *88:24 *94:10 0.000484002
*RES
1 *1341:X *94:6 41.2493 
2 *94:6 *94:8 15 
3 *94:8 *94:10 60.3614 
4 *94:10 *94:16 33.0036 
5 *94:16 *94:20 47.19 
6 *94:20 *1351:A1 27.9093 
*END

*D_NET *95 0.0527112
*CONN
*I *1373:C I *D sky130_fd_sc_hd__and3_1
*I *1386:C I *D sky130_fd_sc_hd__and4_2
*I *230:DIODE I *D sky130_fd_sc_hd__diode_2
*I *1344:A I *D sky130_fd_sc_hd__and2_2
*I *1368:B I *D sky130_fd_sc_hd__nand2_1
*I *1372:A2 I *D sky130_fd_sc_hd__a21oi_1
*I *1365:A_N I *D sky130_fd_sc_hd__and3b_1
*I *1369:B I *D sky130_fd_sc_hd__or2_1
*I *1342:X O *D sky130_fd_sc_hd__and4_4
*CAP
1 *1373:C 0
2 *1386:C 0
3 *230:DIODE 8.10384e-05
4 *1344:A 0.000333077
5 *1368:B 0
6 *1372:A2 0
7 *1365:A_N 0.0011361
8 *1369:B 0
9 *1342:X 0.000302986
10 *95:137 0.00150367
11 *95:113 0.000100469
12 *95:109 0.00384313
13 *95:98 0.00345084
14 *95:83 0.000869504
15 *95:79 0.00071584
16 *95:68 0.000663201
17 *95:64 0.00102938
18 *95:47 0.00240053
19 *95:36 0.00276632
20 *95:24 0.00341999
21 *95:12 0.00396118
22 *95:8 0.00133583
23 *230:DIODE *1394:C 0.000226479
24 *230:DIODE *225:41 0.000141052
25 *1344:A *96:12 0.000692947
26 *1344:A *97:10 0.000107823
27 *1344:A *145:6 0.000606734
28 *1344:A *181:149 0.000105849
29 *1365:A_N *1451:A_N 0.000917189
30 *1365:A_N *113:26 3.98818e-05
31 *1365:A_N *175:62 5.49467e-05
32 *1365:A_N *188:37 0.000348614
33 *95:8 *172:10 0.00021128
34 *95:8 *199:68 0
35 *95:8 *219:16 0
36 *95:12 *130:8 0.000180224
37 *95:12 *189:34 0.00201363
38 *95:24 *1414:A 0.000109316
39 *95:24 *97:69 0.000186589
40 *95:24 *103:63 1.70417e-05
41 *95:24 *105:30 0
42 *95:24 *105:45 0
43 *95:24 *105:49 0.000354421
44 *95:24 *105:66 0.0001892
45 *95:24 *115:40 9.74235e-05
46 *95:24 *160:33 1.21052e-05
47 *95:24 *167:12 0.000107294
48 *95:24 *168:20 5.89766e-06
49 *95:24 *169:26 3.51671e-05
50 *95:24 *183:51 4.08298e-05
51 *95:24 *187:58 0.000222278
52 *95:24 *218:34 0.000992851
53 *95:36 *160:37 0
54 *95:36 *182:53 2.33476e-05
55 *95:36 *187:34 0.000346699
56 *95:36 *220:40 0.000662403
57 *95:47 *160:37 0
58 *95:47 *163:24 4.36401e-06
59 *95:47 *190:115 0.00169722
60 *95:47 *218:62 0.000215059
61 *95:64 *179:24 5.94125e-05
62 *95:64 *189:34 0.00182906
63 *95:68 *1372:B1 5.50049e-05
64 *95:68 *189:34 5.3304e-05
65 *95:79 *1372:B1 0.000125213
66 *95:79 *1420:A1 0
67 *95:79 *97:18 0.000243596
68 *95:79 *189:34 0.000478316
69 *95:79 *191:43 0
70 *95:79 *191:51 0
71 *95:79 *191:66 0.000554759
72 *95:79 *207:114 0.000224654
73 *95:79 *220:66 0.000612634
74 *95:83 *129:16 0.000175066
75 *95:83 *217:41 0.00031609
76 *95:98 *1347:D 0.000105496
77 *95:98 *119:14 0.000817576
78 *95:98 *129:16 0.000705549
79 *95:98 *190:86 0
80 *95:98 *195:10 0.000218371
81 *95:98 *195:33 4.51797e-05
82 *95:98 *217:41 0.000115954
83 *95:109 *1343:B 0.000354841
84 *95:109 *1347:D 1.16455e-05
85 *95:109 *119:14 0.00064907
86 *95:109 *120:10 0.000716798
87 *95:109 *129:10 0.000360819
88 *95:109 *141:43 0.000684896
89 *95:109 *147:72 0
90 *95:109 *195:33 0.000512876
91 *95:109 *205:10 0.00114211
92 *95:109 *205:44 1.96391e-05
93 *95:109 *216:18 7.94187e-05
94 *95:109 *219:10 4.5745e-05
95 *95:109 *222:18 0.000163709
96 *95:109 *223:31 0.000185268
97 *95:113 *1394:C 5.56279e-05
98 *95:137 *1373:A 0.000385315
99 *95:137 *120:6 0.000269464
100 *95:137 *120:10 0.000269644
101 *95:137 *147:72 0
102 *1511:D *95:137 0.000181131
103 *11:17 *95:24 0.000104065
104 *22:8 *230:DIODE 6.92828e-05
105 *22:8 *95:113 1.34914e-05
106 *33:16 *95:36 1.15883e-05
107 *33:16 *95:47 1.88944e-05
108 *40:26 *95:47 0
109 *45:8 *95:12 0.000181925
110 *48:8 *95:64 0.000307132
111 *51:8 *95:98 0
112 *61:16 *95:64 5.94125e-05
113 *70:24 *95:47 0
114 *86:10 *95:47 0
115 *86:22 *95:24 0.000153714
116 *88:50 *95:36 8.91416e-05
*RES
1 *1342:X *95:8 44.1314 
2 *95:8 *95:12 37.5371 
3 *95:12 *95:24 48.4406 
4 *95:24 *95:36 32.5383 
5 *95:36 *1369:B 38 
6 *95:36 *95:47 39.795 
7 *95:47 *1365:A_N 40.9386 
8 *95:12 *95:64 36.4807 
9 *95:64 *95:68 15.6214 
10 *95:68 *1372:A2 23 
11 *95:68 *95:79 35.1343 
12 *95:79 *95:83 18.5111 
13 *95:83 *1368:B 23 
14 *95:83 *95:98 35.2689 
15 *95:98 *1344:A 48.15 
16 *95:98 *95:109 56.84 
17 *95:109 *95:113 15.6214 
18 *95:113 *230:DIODE 27.1429 
19 *95:113 *1386:C 23 
20 *95:109 *95:137 39.7018 
21 *95:137 *1373:C 23 
*END

*D_NET *96 0.0133929
*CONN
*I *1386:D I *D sky130_fd_sc_hd__and4_2
*I *1344:B I *D sky130_fd_sc_hd__and2_2
*I *1343:X O *D sky130_fd_sc_hd__and4_1
*CAP
1 *1386:D 0.000180238
2 *1344:B 0
3 *1343:X 0
4 *96:19 0.00145932
5 *96:12 0.000833189
6 *96:6 0.00211227
7 *1386:D *1394:C 0.000221997
8 *96:12 *1374:C 0.000423756
9 *96:12 *97:10 0.000783403
10 *96:12 *120:20 0.000364122
11 *96:12 *129:10 9.42314e-05
12 *96:12 *165:26 0.000160125
13 *96:12 *165:32 0.000238759
14 *96:12 *204:47 0.00112867
15 *96:19 *1484:A 8.90777e-05
16 *96:19 *120:18 0.000241346
17 *96:19 *120:20 0.000930462
18 *96:19 *129:10 7.9474e-05
19 *96:19 *142:16 0.000606766
20 *96:19 *163:48 0.00050465
21 *96:19 *181:98 3.56328e-05
22 *96:19 *204:47 0.000969712
23 *96:19 *210:89 6.85548e-05
24 *1344:A *96:12 0.000692947
25 *1510:RESET_B *96:19 0.000342674
26 *27:12 *96:19 0.000831496
*RES
1 *1343:X *96:6 38 
2 *96:6 *96:12 42.5293 
3 *96:12 *1344:B 23 
4 *96:6 *96:19 38.5286 
5 *96:19 *1386:D 40.5271 
*END

*D_NET *97 0.0375212
*CONN
*I *1380:C1 I *D sky130_fd_sc_hd__a211oi_2
*I *1381:B I *D sky130_fd_sc_hd__or2_1
*I *1385:A2 I *D sky130_fd_sc_hd__a21oi_1
*I *1382:B I *D sky130_fd_sc_hd__nand2_1
*I *1349:A2 I *D sky130_fd_sc_hd__o31a_1
*I *1344:X O *D sky130_fd_sc_hd__and2_2
*CAP
1 *1380:C1 8.40168e-05
2 *1381:B 3.80122e-05
3 *1385:A2 2.32701e-05
4 *1382:B 0
5 *1349:A2 2.18824e-05
6 *1344:X 0
7 *97:92 0.00170747
8 *97:73 0.000887178
9 *97:69 0.00211251
10 *97:61 0.00214941
11 *97:55 0.00128669
12 *97:35 0.000447401
13 *97:18 0.00147832
14 *97:12 0.00135956
15 *97:10 0.0016089
16 *97:4 0.00250447
17 *1380:C1 *1380:B1 0.000308033
18 *1380:C1 *122:16 0.000308033
19 *1381:B *125:8 5.3304e-05
20 *1385:A2 *105:14 5.3304e-05
21 *1385:A2 *153:32 5.3304e-05
22 *97:10 *1408:A 0.000938253
23 *97:10 *145:6 2.44078e-05
24 *97:10 *168:32 8.06804e-06
25 *97:10 *179:33 0.00182193
26 *97:12 *157:14 0
27 *97:12 *224:59 0.000186488
28 *97:18 *1349:B1 0.000234542
29 *97:18 *1420:A1 0
30 *97:18 *102:16 5.00237e-05
31 *97:18 *157:14 0
32 *97:18 *191:51 0
33 *97:18 *207:122 0
34 *97:18 *224:59 5.58473e-05
35 *97:18 *224:65 0.00100082
36 *97:18 *224:71 0
37 *97:35 *102:16 8.26478e-05
38 *97:35 *104:16 4.74247e-05
39 *97:35 *191:51 2.64616e-05
40 *97:35 *200:46 0.000133938
41 *97:35 *201:56 5.3304e-05
42 *97:55 *179:18 0.00112077
43 *97:55 *194:24 8.75163e-05
44 *97:55 *225:29 0.00103903
45 *97:55 *225:54 9.41704e-05
46 *97:61 *165:51 0.00199941
47 *97:61 *168:26 0.00157291
48 *97:61 *193:22 0.00014184
49 *97:61 *206:26 0.000113659
50 *97:61 *226:80 0.000186763
51 *97:69 *103:63 0.000176056
52 *97:69 *199:62 0.000326682
53 *97:69 *210:33 0.000308221
54 *97:73 *98:12 0.000573223
55 *97:73 *98:14 0.000468341
56 *97:73 *175:22 0.00025307
57 *97:73 *178:14 0.00154562
58 *97:73 *183:12 0.000238768
59 *97:92 *170:74 0.000119287
60 *97:92 *198:18 0.00140386
61 *1344:A *97:10 0.000107823
62 *29:12 *97:12 8.11914e-06
63 *29:12 *97:18 1.44721e-05
64 *45:26 *97:73 0.0004694
65 *51:8 *97:35 0.00026444
66 *57:14 *97:55 8.58827e-05
67 *58:10 *97:92 0.000138727
68 *74:16 *97:92 0.00101337
69 *81:14 *97:10 0.000242892
70 *81:14 *97:12 0.000159274
71 *84:82 *97:10 0.000235091
72 *84:82 *97:12 0.000204947
73 *87:22 *97:61 0.000435681
74 *88:74 *97:12 9.03765e-06
75 *95:24 *97:69 0.000186589
76 *95:79 *97:18 0.000243596
77 *96:12 *97:10 0.000783403
*RES
1 *1344:X *97:4 23 
2 *97:4 *97:10 42.2807 
3 *97:10 *97:12 6.13143 
4 *97:12 *97:18 35.88 
5 *97:18 *1349:A2 23.4971 
6 *97:18 *97:35 40.15 
7 *97:35 *1382:B 23 
8 *97:12 *1385:A2 38.6214 
9 *97:10 *97:55 44.4379 
10 *97:55 *97:61 43.6686 
11 *97:61 *97:69 47.5243 
12 *97:69 *97:73 42.6121 
13 *97:73 *1381:B 38.6214 
14 *97:4 *97:92 47.9357 
15 *97:92 *1380:C1 41.48 
*END

*D_NET *98 0.0185721
*CONN
*I *1346:D I *D sky130_fd_sc_hd__or4_1
*I *1409:C I *D sky130_fd_sc_hd__and4_1
*I *1345:X O *D sky130_fd_sc_hd__and4_1
*CAP
1 *1346:D 0
2 *1409:C 0
3 *1345:X 0.00107268
4 *98:35 0.00239972
5 *98:14 0.00375532
6 *98:12 0.0022706
7 *98:6 0.00198768
8 *98:6 *1345:D 5.26564e-05
9 *98:12 *114:18 0.000318459
10 *98:12 *134:12 0
11 *98:12 *168:51 0.000372517
12 *98:14 *129:24 0
13 *98:14 *129:30 0.000427222
14 *98:14 *135:18 0.00075138
15 *98:14 *168:20 0.000627464
16 *98:14 *168:51 0.000522119
17 *98:14 *175:22 0.000250839
18 *98:14 *178:14 0.000103008
19 *98:14 *178:18 0.000599615
20 *98:14 *183:12 0.000239608
21 *98:35 *104:16 0
22 *98:35 *131:24 0
23 *98:35 *146:12 5.56761e-05
24 *98:35 *188:90 0.000152208
25 *98:35 *196:36 0.000141923
26 *98:35 *200:63 0.000484263
27 *229:DIODE *98:12 4.93266e-05
28 *1497:D *98:12 3.54819e-05
29 *11:17 *98:35 0
30 *32:10 *98:12 7.24729e-05
31 *32:10 *98:14 6.99132e-06
32 *38:14 *98:35 0
33 *45:26 *98:12 0.000298751
34 *52:18 *98:35 0.000482568
35 *97:73 *98:12 0.000573223
36 *97:73 *98:14 0.000468341
*RES
1 *1345:X *98:6 36.0086 
2 *98:6 *98:12 39.3082 
3 *98:12 *98:14 41.0454 
4 *98:14 *1409:C 38 
5 *98:14 *98:35 43.332 
6 *98:35 *1346:D 23 
*END

*D_NET *99 0.00463869
*CONN
*I *1349:A3 I *D sky130_fd_sc_hd__o31a_1
*I *1346:X O *D sky130_fd_sc_hd__or4_1
*CAP
1 *1349:A3 0
2 *1346:X 0.00020699
3 *99:14 0.00025303
4 *99:10 0.00046002
5 *99:10 *143:14 0
6 *99:10 *180:12 0.000350829
7 *99:10 *200:50 0.000394183
8 *99:10 *201:56 1.47709e-05
9 *99:14 *102:16 0.00137674
10 *99:14 *200:46 0.00128771
11 *31:16 *99:10 0.000132039
12 *91:6 *99:14 5.56356e-05
13 *91:14 *99:10 0.000106748
*RES
1 *1346:X *99:10 44.3386 
2 *99:10 *99:14 29.9143 
3 *99:14 *1349:A3 23 
*END

*D_NET *100 0.011617
*CONN
*I *1348:C I *D sky130_fd_sc_hd__and4b_1
*I *1347:X O *D sky130_fd_sc_hd__and4b_1
*CAP
1 *1348:C 0
2 *1347:X 0
3 *100:18 0.00118083
4 *100:14 0.00235813
5 *100:6 0.00117731
6 *100:14 *129:10 3.96175e-05
7 *100:14 *139:26 0.000143531
8 *100:14 *145:12 0
9 *100:14 *165:32 0.000121401
10 *100:14 *200:36 0.00106771
11 *100:14 *201:62 0.00083528
12 *100:18 *1348:D 0.00013014
13 *100:18 *1423:B 0.000569507
14 *100:18 *101:6 0.00113836
15 *100:18 *147:35 0.000621874
16 *100:18 *156:6 0.00114281
17 *100:18 *206:34 0.000523649
18 *100:18 *207:126 0.000433836
19 *21:8 *100:14 0.000111941
20 *72:10 *100:14 2.11066e-05
*RES
1 *1347:X *100:6 38 
2 *100:6 *100:14 42.6743 
3 *100:14 *100:18 43.0443 
4 *100:18 *1348:C 23 
*END

*D_NET *101 0.00664878
*CONN
*I *1349:B1 I *D sky130_fd_sc_hd__o31a_1
*I *1348:X O *D sky130_fd_sc_hd__and4b_1
*CAP
1 *1349:B1 0.000446858
2 *1348:X 0.000733784
3 *101:12 0.000741858
4 *101:6 0.00102878
5 *1349:B1 *102:16 0.00154918
6 *1349:B1 *143:14 0.000628379
7 *101:12 *206:26 8.91804e-05
8 *101:12 *206:34 0
9 *101:12 *226:80 5.78586e-05
10 *31:16 *101:12 0
11 *97:18 *1349:B1 0.000234542
12 *100:18 *101:6 0.00113836
*RES
1 *1348:X *101:6 35.5321 
2 *101:6 *101:12 34.7229 
3 *101:12 *1349:B1 39.82 
*END

*D_NET *102 0.00763956
*CONN
*I *1351:A2 I *D sky130_fd_sc_hd__o211ai_4
*I *1349:X O *D sky130_fd_sc_hd__o31a_1
*CAP
1 *1351:A2 0
2 *1349:X 0
3 *102:16 0.000998305
4 *102:4 0.000998305
5 *102:16 *1336:B1 5.58003e-05
6 *102:16 *1351:C1 5.56356e-05
7 *102:16 *143:8 3.81033e-05
8 *102:16 *143:14 0.000982478
9 *102:16 *174:30 0.000400499
10 *102:16 *200:46 9.53319e-05
11 *102:16 *215:16 0.000229793
12 *1349:B1 *102:16 0.00154918
13 *38:8 *102:16 0.000446518
14 *91:6 *102:16 0.000280202
15 *97:18 *102:16 5.00237e-05
16 *97:35 *102:16 8.26478e-05
17 *99:14 *102:16 0.00137674
*RES
1 *1349:X *102:4 23 
2 *102:4 *102:16 41.9464 
3 *102:16 *1351:A2 23 
*END

*D_NET *103 0.029715
*CONN
*I *1351:B1 I *D sky130_fd_sc_hd__o211ai_4
*I *1439:A I *D sky130_fd_sc_hd__and2_2
*I *1350:X O *D sky130_fd_sc_hd__and4_2
*CAP
1 *1351:B1 0
2 *1439:A 0
3 *1350:X 0.000171744
4 *103:73 0.001045
5 *103:63 0.00221295
6 *103:47 0.0023939
7 *103:34 0.00157487
8 *103:24 0.00413591
9 *103:16 0.00195234
10 *103:8 0.000788988
11 *103:8 *120:62 2.05503e-05
12 *103:8 *156:31 0
13 *103:8 *180:58 8.3072e-05
14 *103:16 *212:10 0.000576754
15 *103:16 *212:23 0.000406412
16 *103:16 *225:35 0.000976051
17 *103:24 *124:30 6.46287e-05
18 *103:24 *126:28 8.44178e-05
19 *103:24 *172:22 0.00134239
20 *103:34 *1439:B 0.000552499
21 *103:34 *166:10 0.000221559
22 *103:34 *168:8 0.000197649
23 *103:34 *172:22 0.00198679
24 *103:34 *176:27 0.00022426
25 *103:34 *187:89 0.00121217
26 *103:47 *153:10 0.000363793
27 *103:47 *183:81 8.4047e-05
28 *103:47 *199:48 0.000116186
29 *103:47 *209:12 6.46983e-05
30 *103:47 *209:35 3.1516e-05
31 *103:63 *1429:C 0.000108947
32 *103:63 *110:24 2.38404e-05
33 *103:63 *127:12 3.98082e-06
34 *103:63 *148:16 0.000664214
35 *103:63 *160:33 0
36 *103:63 *168:20 5.40218e-05
37 *103:63 *176:39 2.21614e-05
38 *103:63 *193:14 0.000655278
39 *103:63 *218:34 0.000155361
40 *103:73 *115:60 0
41 *103:73 *127:12 0.00026176
42 *103:73 *139:51 0.000503289
43 *103:73 *176:39 6.75818e-05
44 *103:73 *196:28 0.000625885
45 *103:73 *215:16 5.98919e-05
46 *103:73 *218:34 0
47 *1339:B1 *103:8 3.10411e-05
48 *1499:RESET_B *103:73 2.90613e-05
49 *1514:RESET_B *103:47 0.000303402
50 *1526:RESET_B *103:24 0.00197173
51 *1526:RESET_B *103:34 0.000357801
52 *53:12 *103:16 0.000179033
53 *86:22 *103:47 7.82513e-05
54 *90:8 *103:63 6.78755e-06
55 *90:8 *103:73 0.000473472
56 *95:24 *103:63 1.70417e-05
57 *97:69 *103:63 0.000176056
*RES
1 *1350:X *103:8 40.9621 
2 *103:8 *103:16 45.7532 
3 *103:16 *103:24 12.4165 
4 *103:24 *103:34 36.4827 
5 *103:34 *1439:A 23 
6 *103:24 *103:47 40.7832 
7 *103:47 *103:63 49.9935 
8 *103:63 *103:73 38.1896 
9 *103:73 *1351:B1 23 
*END

*D_NET *104 0.0177594
*CONN
*I *1448:A2 I *D sky130_fd_sc_hd__a21o_1
*I *1352:A2 I *D sky130_fd_sc_hd__a21bo_2
*I *1351:Y O *D sky130_fd_sc_hd__o211ai_4
*CAP
1 *1448:A2 0
2 *1352:A2 3.73312e-05
3 *1351:Y 1.94645e-05
4 *104:41 0.000985064
5 *104:37 0.00136
6 *104:16 0.00394078
7 *104:10 0.00354798
8 *1352:A2 *154:14 3.3577e-05
9 *1352:A2 *167:26 9.67842e-05
10 *104:10 *174:44 2.26497e-05
11 *104:16 *115:95 0.000342115
12 *104:16 *126:12 7.57281e-06
13 *104:16 *126:28 0.000357491
14 *104:16 *131:24 0.00182794
15 *104:16 *138:10 0.00032994
16 *104:16 *143:14 0.000109884
17 *104:16 *162:24 0.000424997
18 *104:16 *167:26 1.40183e-05
19 *104:16 *189:59 1.74872e-05
20 *104:16 *224:71 0
21 *104:37 *132:14 6.70361e-05
22 *104:37 *138:10 5.27958e-05
23 *104:37 *167:26 0.000135644
24 *104:37 *188:12 0.000131383
25 *104:37 *189:59 1.02219e-05
26 *104:41 *168:40 0.000208221
27 *104:41 *170:70 0.000161605
28 *1519:RESET_B *104:16 0.000330424
29 *39:12 *104:16 1.63247e-05
30 *51:8 *104:16 0
31 *51:8 *104:41 0.000820798
32 *93:14 *104:41 6.12484e-05
33 *93:18 *104:37 0.000191447
34 *93:18 *104:41 0.00204972
35 *97:35 *104:16 4.74247e-05
36 *98:35 *104:16 0
*RES
1 *1351:Y *104:10 46.3211 
2 *104:10 *104:16 31.445 
3 *104:16 *1352:A2 39.0979 
4 *104:16 *104:37 37.4157 
5 *104:37 *104:41 44.0207 
6 *104:41 *1448:A2 23 
*END

*D_NET *105 0.0427509
*CONN
*I *1429:A I *D sky130_fd_sc_hd__and3_1
*I *1353:A I *D sky130_fd_sc_hd__inv_2
*I *1365:B I *D sky130_fd_sc_hd__and3b_1
*I *1358:B I *D sky130_fd_sc_hd__and3_1
*I *1383:B I *D sky130_fd_sc_hd__and3_1
*I *1446:A I *D sky130_fd_sc_hd__and3_1
*I *1367:A I *D sky130_fd_sc_hd__buf_2
*I *1436:A I *D sky130_fd_sc_hd__and3_1
*I *1362:B I *D sky130_fd_sc_hd__and3_1
*I *1352:X O *D sky130_fd_sc_hd__a21bo_2
*CAP
1 *1429:A 7.18884e-05
2 *1353:A 0.000391143
3 *1365:B 0
4 *1358:B 0
5 *1383:B 0
6 *1446:A 0.000209139
7 *1367:A 0
8 *1436:A 0
9 *1362:B 0.000111871
10 *1352:X 0.000422453
11 *105:138 0.00034921
12 *105:130 0.000740353
13 *105:128 0.00114085
14 *105:119 0.00141741
15 *105:107 0.00312201
16 *105:96 0.000327471
17 *105:74 0.000681872
18 *105:70 0.00108006
19 *105:66 0.00143099
20 *105:49 0.000817688
21 *105:45 0.000633314
22 *105:30 0.000851596
23 *105:20 0.00468346
24 *105:14 0.00403507
25 *1362:B *139:55 0.000141344
26 *1429:A *135:10 0.000132843
27 *1429:A *176:39 4.52958e-05
28 *1446:A *115:6 0.000155584
29 *1446:A *191:18 6.17437e-06
30 *1446:A *223:25 0.000372118
31 *105:14 *1420:C1 5.3304e-05
32 *105:14 *115:76 0.000502426
33 *105:14 *115:95 7.11824e-06
34 *105:14 *143:30 5.26657e-05
35 *105:14 *153:32 0.000241076
36 *105:14 *224:59 7.11691e-05
37 *105:14 *224:65 0.000173919
38 *105:14 *225:54 2.5597e-05
39 *105:20 *150:12 0
40 *105:20 *169:34 0
41 *105:20 *196:36 0
42 *105:30 *1444:B 2.95125e-05
43 *105:30 *110:30 4.73379e-05
44 *105:30 *170:30 0.00019736
45 *105:30 *200:63 0.000303008
46 *105:30 *210:29 0.000837416
47 *105:30 *216:60 0.000572939
48 *105:30 *218:34 0
49 *105:45 *1414:A 3.64249e-05
50 *105:45 *115:40 6.63801e-05
51 *105:45 *135:10 0.00018329
52 *105:45 *148:16 0.000294882
53 *105:45 *176:39 9.93322e-05
54 *105:45 *210:29 0.000666664
55 *105:49 *148:16 7.4914e-05
56 *105:49 *193:14 3.67392e-05
57 *105:66 *134:73 0.000218471
58 *105:66 *144:12 0.00021677
59 *105:66 *183:51 2.50707e-05
60 *105:66 *193:14 0.00026902
61 *105:66 *214:42 0.0002499
62 *105:66 *216:42 0.000182073
63 *105:66 *218:26 0.000833641
64 *105:70 *191:18 0.00109022
65 *105:70 *223:25 0.000256699
66 *105:74 *191:18 0.000533957
67 *105:74 *223:25 0.00105073
68 *105:96 *1383:C 1.76557e-05
69 *105:96 *125:24 5.62433e-06
70 *105:96 *155:63 0.000139686
71 *105:96 *210:56 0.000173564
72 *105:107 *109:18 0.000384057
73 *105:107 *148:16 2.13834e-05
74 *105:107 *216:40 0.000156313
75 *105:107 *218:26 0.000315917
76 *105:119 *109:18 0.000762814
77 *105:119 *164:10 0.000242983
78 *105:128 *130:10 0.000144169
79 *105:128 *168:55 0.000205648
80 *105:128 *168:70 0.000544156
81 *105:128 *180:90 0.000298172
82 *105:138 *114:18 6.07611e-06
83 *105:138 *134:29 2.88065e-05
84 *105:138 *166:10 7.75329e-06
85 *1333:B1 *105:128 2.11066e-05
86 *1385:A2 *105:14 5.3304e-05
87 *11:17 *105:20 9.69288e-05
88 *20:16 *1353:A 0.000424995
89 *20:16 *105:138 0.000240217
90 *29:32 *105:20 0.000220791
91 *29:32 *105:96 2.0142e-05
92 *34:8 *105:138 0.000224336
93 *41:22 *105:138 7.64198e-05
94 *55:18 *105:66 0.000230882
95 *55:18 *105:107 0.000506072
96 *62:8 *105:128 0.0021475
97 *86:55 *105:70 0.00060954
98 *87:22 *105:20 0.000234438
99 *89:14 *105:128 9.29474e-05
100 *94:10 *105:128 0.000681641
101 *95:24 *105:30 0
102 *95:24 *105:45 0
103 *95:24 *105:49 0.000354421
104 *95:24 *105:66 0.0001892
*RES
1 *1352:X *105:14 48.8232 
2 *105:14 *105:20 23.0112 
3 *105:20 *105:30 49.4818 
4 *105:30 *1362:B 39.5743 
5 *105:20 *105:45 26.1754 
6 *105:45 *105:49 20.075 
7 *105:49 *1436:A 38 
8 *105:49 *105:66 47.9593 
9 *105:66 *105:70 27.0557 
10 *105:70 *105:74 12.5529 
11 *105:74 *1367:A 23 
12 *105:74 *1446:A 27.93 
13 *105:70 *105:96 34.6607 
14 *105:96 *1383:B 23 
15 *105:66 *105:107 26.6207 
16 *105:107 *105:119 49.3471 
17 *105:119 *1358:B 23 
18 *105:107 *105:128 49.3029 
19 *105:128 *105:130 15 
20 *105:130 *105:138 38.2236 
21 *105:138 *1365:B 23 
22 *105:130 *1353:A 31.265 
23 *105:45 *1429:A 24.9471 
*END

*D_NET *106 0.0190434
*CONN
*I *1380:B1 I *D sky130_fd_sc_hd__a211oi_2
*I *1354:A I *D sky130_fd_sc_hd__clkbuf_4
*I *1353:Y O *D sky130_fd_sc_hd__inv_2
*CAP
1 *1380:B1 0.000473298
2 *1354:A 0.000181816
3 *1353:Y 0.00132649
4 *106:31 0.00227399
5 *106:29 0.00180069
6 *106:27 0.00248683
7 *106:25 0.00266241
8 *106:8 0.000357398
9 *106:6 0.00132649
10 *1354:A *186:34 0.000386237
11 *1380:B1 *122:16 0.000295021
12 *106:25 *1495:CLK 9.84851e-05
13 *106:25 *186:34 8.51049e-05
14 *106:25 *186:47 2.55642e-05
15 *106:27 *146:20 0.000268907
16 *106:27 *147:6 0.000216897
17 *106:31 *154:10 0
18 *106:31 *185:64 9.96205e-05
19 *106:31 *185:70 0.000200207
20 *106:31 *185:92 0.000177658
21 *106:31 *192:10 0
22 *106:31 *220:104 0
23 *1380:C1 *1380:B1 0.000308033
24 *1495:D *106:6 0.00195851
25 *1495:D *106:25 2.44795e-05
26 *1495:D *106:27 5.70419e-05
27 *1495:RESET_B *106:27 9.52447e-05
28 *1520:RESET_B *106:31 0.001368
29 *69:10 *1354:A 0.000386237
30 *69:10 *106:25 0.000102757
*RES
1 *1353:Y *106:6 44.5843 
2 *106:6 *106:8 15 
3 *106:8 *1354:A 43.4271 
4 *106:8 *106:25 19.1014 
5 *106:25 *106:27 44.9293 
6 *106:27 *106:29 15 
7 *106:29 *106:31 39.585 
8 *106:31 *1380:B1 47.6736 
*END

*D_NET *107 0.0209011
*CONN
*I *1358:A I *D sky130_fd_sc_hd__and3_1
*I *231:DIODE I *D sky130_fd_sc_hd__diode_2
*I *1356:Y O *D sky130_fd_sc_hd__nand2_1
*CAP
1 *1358:A 2.30556e-05
2 *231:DIODE 6.30607e-05
3 *1356:Y 0.000220081
4 *107:46 0.00328229
5 *107:40 0.00326133
6 *107:34 0.00123712
7 *107:20 0.001765
8 *107:10 0.000813121
9 *231:DIODE *190:26 0.000144501
10 *107:10 *199:107 5.56356e-05
11 *107:10 *199:120 2.1819e-05
12 *107:20 *147:66 0.000376595
13 *107:20 *147:68 0.000261951
14 *107:20 *149:6 4.6595e-05
15 *107:20 *149:12 0.000224983
16 *107:20 *206:58 4.5051e-05
17 *107:20 *207:79 0.000732747
18 *107:20 *218:88 4.26677e-05
19 *107:34 *115:132 0.000175903
20 *107:34 *121:16 0.0010126
21 *107:34 *130:20 1.71615e-05
22 *107:34 *131:24 1.0092e-05
23 *107:34 *157:10 0.00101461
24 *107:34 *182:72 0.000809937
25 *107:34 *185:16 9.42416e-05
26 *107:34 *212:8 0.000828927
27 *107:40 *181:58 4.96024e-05
28 *107:46 *1358:C 0.000635982
29 *107:46 *1457:C 0.000157075
30 *107:46 *176:12 7.15126e-05
31 *107:46 *188:81 0.000401871
32 *107:46 *190:22 0.000411542
33 *107:46 *190:26 0.000762505
34 *1510:RESET_B *107:10 7.21237e-05
35 *1513:RESET_B *107:46 0.00159635
36 *87:24 *107:40 8.36198e-05
37 *87:32 *107:34 5.3304e-05
38 *87:51 *107:40 2.45092e-05
*RES
1 *1356:Y *107:10 41.3557 
2 *107:10 *107:20 45.5564 
3 *107:20 *107:34 45.9057 
4 *107:34 *107:40 31.5536 
5 *107:40 *107:46 47.8293 
6 *107:46 *231:DIODE 24.5743 
7 *107:46 *1358:A 23.4971 
*END

*D_NET *108 0.0141899
*CONN
*I *1358:C I *D sky130_fd_sc_hd__and3_1
*I *1357:X O *D sky130_fd_sc_hd__or2_1
*CAP
1 *1358:C 0.000214583
2 *1357:X 0.000118493
3 *108:18 0.00424786
4 *108:8 0.00415177
5 *1358:C *109:10 0.000523745
6 *108:8 *198:10 9.67842e-05
7 *108:8 *205:44 2.02872e-05
8 *108:18 *109:10 0.000108129
9 *108:18 *117:20 9.84894e-05
10 *108:18 *141:14 0.0011754
11 *108:18 *156:31 0
12 *108:18 *158:18 0.000520287
13 *108:18 *169:26 3.82803e-05
14 *108:18 *182:53 0.000409091
15 *108:18 *198:10 0.000121648
16 *108:18 *199:27 0
17 *108:18 *199:42 0
18 *108:18 *201:14 0.000149254
19 *108:18 *211:27 0.000324066
20 *108:18 *211:35 0.000218906
21 *108:18 *224:24 0.000212115
22 *22:20 *108:18 6.31028e-05
23 *25:16 *108:18 0.000114474
24 *45:26 *108:18 0.000627172
25 *84:37 *108:18 0
26 *107:46 *1358:C 0.000635982
*RES
1 *1357:X *108:8 39.5743 
2 *108:8 *108:18 45.0308 
3 *108:18 *1358:C 45.1257 
*END

*D_NET *109 0.0274697
*CONN
*I *1359:A I *D sky130_fd_sc_hd__buf_1
*I *1358:X O *D sky130_fd_sc_hd__and3_1
*CAP
1 *1359:A 0.000131928
2 *1358:X 0.000467358
3 *109:40 0.00171049
4 *109:38 0.00526722
5 *109:28 0.00508969
6 *109:18 0.00282487
7 *109:10 0.0018912
8 *109:10 *201:14 0.000110267
9 *109:18 *130:20 0.00010124
10 *109:28 *1526:CLK 5.58473e-05
11 *109:28 *160:37 0
12 *109:28 *184:99 0.00015205
13 *109:28 *187:44 2.58165e-05
14 *109:28 *188:65 0.000538823
15 *109:28 *188:81 0.000383805
16 *109:28 *203:27 0.000217834
17 *109:38 *124:30 8.48605e-05
18 *109:38 *131:24 0.000173248
19 *109:38 *182:12 0.000543701
20 *109:38 *203:27 0.00016956
21 *109:40 *170:74 0.00185078
22 *109:40 *198:18 0
23 *1358:C *109:10 0.000523745
24 *1518:RESET_B *109:40 0.000724879
25 *1526:RESET_B *109:38 0.00136009
26 *21:20 *109:40 0.000304633
27 *29:32 *109:28 4.6318e-06
28 *31:8 *1359:A 0.000171898
29 *36:12 *1359:A 0.000310653
30 *54:28 *109:18 7.55181e-05
31 *79:10 *109:40 0
32 *86:40 *109:40 0
33 *87:10 *109:40 2.33476e-05
34 *87:22 *109:38 0.000175416
35 *87:44 *109:18 7.51453e-06
36 *88:6 *109:18 8.5258e-05
37 *88:12 *109:18 0.000656526
38 *105:107 *109:18 0.000384057
39 *105:119 *109:18 0.000762814
40 *108:18 *109:10 0.000108129
*RES
1 *1358:X *109:10 45.4157 
2 *109:10 *109:18 39.6086 
3 *109:18 *109:28 48.9743 
4 *109:28 *109:38 42.3342 
5 *109:38 *109:40 39.4089 
6 *109:40 *1359:A 42.4329 
*END

*D_NET *110 0.0213405
*CONN
*I *1362:A I *D sky130_fd_sc_hd__and3_1
*I *1360:Y O *D sky130_fd_sc_hd__nand3_1
*CAP
1 *1362:A 0
2 *1360:Y 0.000559828
3 *110:30 0.000937312
4 *110:24 0.00632038
5 *110:10 0.00594289
6 *110:10 *147:84 9.65021e-05
7 *110:10 *188:65 2.11066e-05
8 *110:10 *210:66 0.000309622
9 *110:10 *218:72 0.000211825
10 *110:24 *131:24 0
11 *110:24 *150:38 2.2993e-05
12 *110:24 *158:10 0.000127191
13 *110:24 *162:24 0.00310276
14 *110:24 *219:14 8.73121e-05
15 *110:24 *220:40 1.28158e-05
16 *110:24 *222:38 0.000127194
17 *110:24 *226:16 0.000101418
18 *110:30 *111:14 0.00184217
19 *110:30 *130:10 5.08422e-06
20 *110:30 *143:8 2.95423e-05
21 *110:30 *146:20 0.000116093
22 *110:30 *194:12 2.36931e-05
23 *110:30 *200:88 0
24 *110:30 *220:8 0.000569052
25 *46:16 *110:30 0.000322757
26 *47:51 *110:30 9.25661e-05
27 *48:16 *110:10 2.5343e-05
28 *86:34 *110:24 0.000261826
29 *103:63 *110:24 2.38404e-05
30 *105:30 *110:30 4.73379e-05
*RES
1 *1360:Y *110:10 47.5182 
2 *110:10 *110:24 44.8912 
3 *110:24 *110:30 41.2968 
4 *110:30 *1362:A 23 
*END

*D_NET *111 0.0076412
*CONN
*I *1362:C I *D sky130_fd_sc_hd__and3_1
*I *1361:X O *D sky130_fd_sc_hd__a21o_1
*CAP
1 *1362:C 0
2 *1361:X 0.000339797
3 *111:14 0.000895459
4 *111:8 0.00123526
5 *111:8 *194:20 0.00102051
6 *111:8 *199:62 0.00102253
7 *111:14 *129:84 0.000226886
8 *111:14 *130:10 0.000937844
9 *111:14 *143:8 9.70259e-06
10 *111:14 *215:8 1.94328e-05
11 *111:14 *215:31 9.16036e-05
12 *110:30 *111:14 0.00184217
*RES
1 *1361:X *111:8 49.5793 
2 *111:8 *111:14 40.7271 
3 *111:14 *1362:C 23 
*END

*D_NET *112 0.00639197
*CONN
*I *1363:A I *D sky130_fd_sc_hd__buf_1
*I *1362:X O *D sky130_fd_sc_hd__and3_1
*CAP
1 *1363:A 0
2 *1362:X 0.000485289
3 *112:18 0.00179231
4 *112:10 0.00227759
5 *112:10 *143:8 2.83509e-05
6 *112:10 *170:30 3.6608e-05
7 *112:18 *178:22 0.000156061
8 *112:18 *183:91 0.000279227
9 *112:18 *210:10 0.000414249
10 *1351:A1 *112:10 0.000245218
11 *1496:D *112:18 0.000520929
12 *1519:RESET_B *112:18 0.000156142
*RES
1 *1362:X *112:10 45.0636 
2 *112:10 *112:18 44.2486 
3 *112:18 *1363:A 23 
*END

*D_NET *113 0.0198442
*CONN
*I *1365:C I *D sky130_fd_sc_hd__and3b_1
*I *1364:X O *D sky130_fd_sc_hd__a31o_1
*CAP
1 *1365:C 0
2 *1364:X 0.000859919
3 *113:26 0.00143098
4 *113:16 0.00556
5 *113:6 0.00498894
6 *113:6 *1364:A2 0.000679896
7 *113:16 *118:16 0.000550276
8 *113:16 *162:24 6.49646e-05
9 *113:16 *220:104 0.000548044
10 *113:26 *134:35 1.01436e-05
11 *113:26 *175:62 0.000522803
12 *113:26 *190:115 0.000530446
13 *113:26 *202:42 0.000125982
14 *113:26 *213:25 0.000293337
15 *1365:A_N *113:26 3.98818e-05
16 *1495:RESET_B *113:16 0
17 *47:24 *113:16 0.000327166
18 *47:91 *113:16 0.0032564
19 *86:8 *113:26 5.50106e-05
20 *86:10 *113:26 0
*RES
1 *1364:X *113:6 36.485 
2 *113:6 *113:16 48.7239 
3 *113:16 *113:26 39.6396 
4 *113:26 *1365:C 23 
*END

*D_NET *114 0.00499759
*CONN
*I *1366:A I *D sky130_fd_sc_hd__buf_1
*I *1365:X O *D sky130_fd_sc_hd__and3b_1
*CAP
1 *1366:A 0
2 *1365:X 0
3 *114:18 0.00178982
4 *114:6 0.00178982
5 *114:18 *134:12 0
6 *114:18 *134:29 0.00016885
7 *114:18 *191:14 0.00055883
8 *114:18 *201:8 9.6788e-06
9 *229:DIODE *114:18 4.67998e-05
10 *1497:D *114:18 4.30894e-05
11 *32:10 *114:18 0.000151508
12 *34:8 *114:18 7.68351e-05
13 *40:10 *114:18 3.78259e-05
14 *98:12 *114:18 0.000318459
15 *105:138 *114:18 6.07611e-06
*RES
1 *1365:X *114:6 38 
2 *114:6 *114:18 48.1636 
3 *114:18 *1366:A 23 
*END

*D_NET *115 0.0380809
*CONN
*I *1377:A I *D sky130_fd_sc_hd__and3_1
*I *1390:A I *D sky130_fd_sc_hd__and3_1
*I *1406:A I *D sky130_fd_sc_hd__and3_1
*I *1401:A I *D sky130_fd_sc_hd__and3_1
*I *1370:A I *D sky130_fd_sc_hd__and3_1
*I *1420:C1 I *D sky130_fd_sc_hd__o211a_1
*I *1425:A I *D sky130_fd_sc_hd__and3_1
*I *1449:B1 I *D sky130_fd_sc_hd__o211a_1
*I *1414:A I *D sky130_fd_sc_hd__and3_1
*I *1397:A I *D sky130_fd_sc_hd__and3_1
*I *1367:X O *D sky130_fd_sc_hd__buf_2
*CAP
1 *1377:A 0.00103368
2 *1390:A 0
3 *1406:A 0
4 *1401:A 0.000126284
5 *1370:A 0.000242899
6 *1420:C1 1.96784e-05
7 *1425:A 3.85333e-05
8 *1449:B1 0
9 *1414:A 0.000128323
10 *1397:A 0
11 *1367:X 0.00107473
12 *115:132 0.00156237
13 *115:101 0.00133494
14 *115:95 0.00140183
15 *115:76 0.000720759
16 *115:60 0.000941906
17 *115:40 0.00108543
18 *115:34 0.00176103
19 *115:30 0.00213987
20 *115:28 0.0012364
21 *115:22 0.000812187
22 *115:20 0.000639038
23 *115:10 0.00102686
24 *115:8 0.000916515
25 *115:6 0.00107473
26 *1370:A *116:12 1.29848e-05
27 *1370:A *117:26 0.000398673
28 *1377:A *1377:B 0.000817034
29 *1377:A *1390:C 9.20005e-05
30 *1377:A *1448:B1 9.66668e-05
31 *1377:A *121:16 0.000180025
32 *1377:A *132:8 2.09226e-05
33 *1377:A *174:8 0.000195517
34 *1377:A *200:6 0.00052857
35 *1401:A *1494:A 0.000228909
36 *1401:A *139:32 0.000474867
37 *1414:A *148:16 5.56306e-05
38 *1414:A *167:12 1.14452e-05
39 *1425:A *191:82 1.14154e-05
40 *115:6 *172:22 6.04112e-05
41 *115:6 *214:12 9.67842e-05
42 *115:6 *223:25 0.000260323
43 *115:10 *179:10 0.000439916
44 *115:10 *214:24 0.000103433
45 *115:10 *214:55 1.3822e-05
46 *115:10 *224:59 0.000703903
47 *115:20 *143:30 1.39162e-05
48 *115:20 *155:34 0.000295472
49 *115:20 *179:10 0.000185676
50 *115:20 *212:10 0.000955368
51 *115:20 *224:59 0.000187917
52 *115:20 *225:35 0.000621372
53 *115:28 *128:10 9.5877e-05
54 *115:28 *137:18 0.000551954
55 *115:28 *153:32 0.000101436
56 *115:28 *154:14 0.000701146
57 *115:28 *191:82 0.000163045
58 *115:30 *181:12 4.96303e-05
59 *115:30 *181:31 4.96207e-05
60 *115:30 *187:66 0.000334767
61 *115:30 *191:82 0.000105328
62 *115:34 *187:66 9.67842e-05
63 *115:34 *196:28 0.000190572
64 *115:40 *129:20 0.000120716
65 *115:40 *137:8 0.000218914
66 *115:40 *137:10 6.57815e-06
67 *115:60 *127:12 0
68 *115:60 *174:44 8.00906e-05
69 *115:60 *187:66 1.46784e-05
70 *115:60 *208:18 0
71 *115:60 *216:83 0.000159964
72 *115:60 *220:20 0.000497879
73 *115:76 *1352:B1_N 1.3789e-05
74 *115:76 *128:10 0.000156628
75 *115:76 *153:32 1.42218e-05
76 *115:76 *154:14 0.000769877
77 *115:95 *1352:B1_N 3.83078e-05
78 *115:95 *154:14 1.12672e-05
79 *115:95 *167:26 0.000139346
80 *115:95 *189:59 1.01436e-05
81 *115:101 *1418:B 0.000222467
82 *115:101 *117:26 0.000601131
83 *115:101 *119:14 0.000400204
84 *115:101 *152:8 0.000825112
85 *115:101 *207:114 0.000834683
86 *115:132 *1390:C 0.00026528
87 *115:132 *121:16 0.000473431
88 *115:132 *214:55 0.000237844
89 *115:132 *224:43 0.000238618
90 *115:132 *224:59 0.000206046
91 *1334:B *115:40 0.000474118
92 *1446:A *115:6 0.000155584
93 *49:12 *115:20 0.0001784
94 *51:8 *115:95 9.79034e-05
95 *52:10 *1401:A 0.000200095
96 *79:10 *115:101 0
97 *84:82 *115:132 3.01561e-05
98 *88:64 *115:20 0.000175903
99 *95:24 *1414:A 0.000109316
100 *95:24 *115:40 9.74235e-05
101 *103:73 *115:60 0
102 *104:16 *115:95 0.000342115
103 *105:14 *1420:C1 5.3304e-05
104 *105:14 *115:76 0.000502426
105 *105:14 *115:95 7.11824e-06
106 *105:45 *1414:A 3.64249e-05
107 *105:45 *115:40 6.63801e-05
108 *107:34 *115:132 0.000175903
*RES
1 *1367:X *115:6 36.9614 
2 *115:6 *115:8 15 
3 *115:8 *115:10 10.005 
4 *115:10 *115:20 48.1871 
5 *115:20 *115:22 15 
6 *115:22 *115:28 15.08 
7 *115:28 *115:30 11.5793 
8 *115:30 *115:34 24.1971 
9 *115:34 *115:40 34.43 
10 *115:40 *1397:A 23 
11 *115:34 *1414:A 41.3143 
12 *115:30 *115:60 47.4 
13 *115:60 *1449:B1 23 
14 *115:28 *1425:A 23.8493 
15 *115:22 *115:76 9.57 
16 *115:76 *1420:C1 23.6214 
17 *115:76 *115:95 38.7207 
18 *115:95 *115:101 44.8286 
19 *115:101 *1370:A 43.7793 
20 *115:101 *1401:A 44.3386 
21 *115:10 *1406:A 38 
22 *115:8 *115:132 27.5736 
23 *115:132 *1390:A 23 
24 *115:132 *1377:A 45.765 
*END

*D_NET *116 0.00812228
*CONN
*I *1370:B I *D sky130_fd_sc_hd__and3_1
*I *1368:Y O *D sky130_fd_sc_hd__nand2_1
*CAP
1 *1370:B 0
2 *1368:Y 0.00180995
3 *116:12 0.000508325
4 *116:6 0.00231828
5 *116:6 *1392:A2 4.39488e-05
6 *116:6 *129:16 0.000819318
7 *116:6 *133:8 0.000496007
8 *116:6 *201:62 2.23649e-05
9 *116:12 *117:26 0.00112615
10 *116:12 *118:10 0.000151383
11 *116:12 *140:12 0.000813567
12 *1370:A *116:12 1.29848e-05
*RES
1 *1368:Y *116:6 47.4429 
2 *116:6 *116:12 47.0479 
3 *116:12 *1370:B 23 
*END

*D_NET *117 0.0223366
*CONN
*I *1370:C I *D sky130_fd_sc_hd__and3_1
*I *1369:X O *D sky130_fd_sc_hd__or2_1
*CAP
1 *1370:C 5.83633e-05
2 *1369:X 0.000600439
3 *117:26 0.0017308
4 *117:24 0.00287377
5 *117:20 0.00334991
6 *117:10 0.00274901
7 *1370:C *179:60 2.06129e-05
8 *117:10 *159:14 0.000121073
9 *117:10 *187:34 0.000219101
10 *117:10 *208:41 0.000123361
11 *117:20 *1531:A 0.00037201
12 *117:20 *131:24 0
13 *117:20 *142:26 1.64319e-05
14 *117:20 *158:18 0.000370391
15 *117:20 *179:110 7.19917e-05
16 *117:20 *182:66 0.000799882
17 *117:20 *185:53 3.46013e-05
18 *117:24 *170:64 0.000263946
19 *117:24 *185:6 0.000635673
20 *117:24 *185:12 5.3304e-05
21 *117:24 *185:62 0.00136607
22 *117:26 *118:10 0.000304251
23 *117:26 *140:12 0.000628009
24 *117:26 *154:10 0.00261552
25 *117:26 *220:104 0.00066363
26 *1370:A *117:26 0.000398673
27 *79:10 *117:26 0
28 *80:8 *117:10 5.64763e-05
29 *80:14 *117:10 1.34914e-05
30 *108:18 *117:20 9.84894e-05
31 *115:101 *117:26 0.000601131
32 *116:12 *117:26 0.00112615
*RES
1 *1369:X *117:10 46.0682 
2 *117:10 *117:20 37.1475 
3 *117:20 *117:24 38.0136 
4 *117:24 *117:26 55.0793 
5 *117:26 *1370:C 38.7043 
*END

*D_NET *118 0.0280221
*CONN
*I *1371:A I *D sky130_fd_sc_hd__buf_1
*I *1370:X O *D sky130_fd_sc_hd__and3_1
*CAP
1 *1371:A 0
2 *1370:X 0
3 *118:26 0.000146329
4 *118:20 0.00159425
5 *118:18 0.00144792
6 *118:16 0.00170627
7 *118:10 0.00316226
8 *118:6 0.001456
9 *118:10 *140:12 0.00213626
10 *118:10 *147:35 0.000216833
11 *118:10 *220:104 6.3852e-05
12 *118:16 *147:10 0
13 *118:16 *155:76 0.000124709
14 *118:16 *216:10 0.000188926
15 *118:16 *220:104 0.00232203
16 *118:16 *221:48 0
17 *118:20 *149:48 0.00332279
18 *118:20 *192:6 0.00220912
19 *118:20 *195:33 0.000230637
20 *118:20 *207:46 0.000800039
21 *118:20 *208:123 5.25278e-05
22 *26:8 *118:10 0.0027404
23 *26:8 *118:16 0.00075588
24 *52:10 *118:10 5.93338e-05
25 *54:16 *118:20 0.00213925
26 *54:18 *118:26 5.58021e-05
27 *55:10 *118:26 8.47399e-05
28 *113:16 *118:16 0.000550276
29 *116:12 *118:10 0.000151383
30 *117:26 *118:10 0.000304251
*RES
1 *1370:X *118:6 38 
2 *118:6 *118:10 48.7096 
3 *118:10 *118:16 47.6946 
4 *118:16 *118:18 15 
5 *118:18 *118:20 67.7979 
6 *118:20 *118:26 32.9621 
7 *118:26 *1371:A 23 
*END

*D_NET *119 0.0104713
*CONN
*I *1374:B I *D sky130_fd_sc_hd__nor3_1
*I *1372:Y O *D sky130_fd_sc_hd__a21oi_1
*CAP
1 *1374:B 8.85213e-05
2 *1372:Y 0.00118396
3 *119:14 0.00122109
4 *119:8 0.00231653
5 *119:8 *189:34 4.21378e-05
6 *119:8 *191:66 0.00128637
7 *119:8 *191:82 0.000181125
8 *119:14 *129:10 0.000539977
9 *119:14 *152:8 0.000862786
10 *119:14 *191:66 0.000185428
11 *119:14 *195:33 0.000132567
12 *119:14 *201:62 0
13 *119:14 *207:114 0.000112175
14 *37:10 *119:14 0.000283943
15 *42:10 *1374:B 7.15126e-05
16 *43:14 *1374:B 9.62764e-05
17 *95:98 *119:14 0.000817576
18 *95:109 *119:14 0.00064907
19 *115:101 *119:14 0.000400204
*RES
1 *1372:Y *119:8 40.7936 
2 *119:8 *119:14 47.48 
3 *119:14 *1374:B 40.0507 
*END

*D_NET *120 0.0192345
*CONN
*I *1375:B I *D sky130_fd_sc_hd__or2_1
*I *1376:B I *D sky130_fd_sc_hd__nand2_1
*I *1374:C I *D sky130_fd_sc_hd__nor3_1
*I *1373:X O *D sky130_fd_sc_hd__and3_1
*CAP
1 *1375:B 0
2 *1376:B 4.24639e-05
3 *1374:C 0.000156379
4 *1373:X 0.000760317
5 *120:62 0.000685741
6 *120:46 0.0012036
7 *120:20 0.000698523
8 *120:18 0.0011963
9 *120:10 0.00130604
10 *120:6 0.0018876
11 *1374:C *129:10 0.000423756
12 *120:6 *1373:A 0.000119969
13 *120:10 *129:10 0.00158353
14 *120:10 *219:10 4.5745e-05
15 *120:18 *129:10 0.000231203
16 *120:18 *208:61 9.58714e-05
17 *120:20 *129:10 0.0012853
18 *120:46 *158:18 2.11066e-05
19 *120:46 *204:39 0.000646376
20 *120:46 *216:18 9.41704e-05
21 *120:46 *224:14 0.000468897
22 *120:46 *226:39 2.33476e-05
23 *120:62 *141:14 0.000125095
24 *120:62 *158:18 0.000553157
25 *1339:B1 *120:62 0.000109548
26 *1511:D *120:6 3.3577e-05
27 *27:12 *120:10 0.000276261
28 *40:26 *120:62 2.944e-05
29 *53:12 *120:46 0.000396737
30 *53:12 *120:62 0.000868632
31 *74:20 *1376:B 2.64616e-05
32 *80:8 *120:62 0.000603225
33 *95:109 *120:10 0.000716798
34 *95:137 *120:6 0.000269464
35 *95:137 *120:10 0.000269644
36 *96:12 *1374:C 0.000423756
37 *96:12 *120:20 0.000364122
38 *96:19 *120:18 0.000241346
39 *96:19 *120:20 0.000930462
40 *103:8 *120:62 2.05503e-05
*RES
1 *1373:X *120:6 38.3907 
2 *120:6 *120:10 45.7814 
3 *120:10 *120:18 34.4121 
4 *120:18 *120:20 17.7521 
5 *120:20 *1374:C 43.7793 
6 *120:20 *1376:B 38.6214 
7 *120:18 *120:46 44.2825 
8 *120:46 *120:62 44.1525 
9 *120:62 *1375:B 23 
*END

*D_NET *121 0.00967737
*CONN
*I *1377:B I *D sky130_fd_sc_hd__and3_1
*I *1375:X O *D sky130_fd_sc_hd__or2_1
*CAP
1 *1377:B 0.00112842
2 *1375:X 0.000606162
3 *121:16 0.00179605
4 *121:10 0.00127379
5 *1377:B *200:6 0.000612799
6 *121:16 *1390:B 0.000329691
7 *121:16 *130:20 0.000199395
8 *1377:A *1377:B 0.000817034
9 *1377:A *121:16 0.000180025
10 *53:12 *121:10 0.000387876
11 *76:28 *1377:B 9.66668e-05
12 *80:8 *121:10 2.60099e-05
13 *85:10 *121:10 0.000367568
14 *87:51 *121:10 0.00036985
15 *107:34 *121:16 0.0010126
16 *115:132 *121:16 0.000473431
*RES
1 *1375:X *121:10 48.9371 
2 *121:10 *121:16 34.0986 
3 *121:16 *1377:B 43.6521 
*END

*D_NET *122 0.00799856
*CONN
*I *1377:C I *D sky130_fd_sc_hd__and3_1
*I *1380:A2 I *D sky130_fd_sc_hd__a211oi_2
*I *1376:Y O *D sky130_fd_sc_hd__nand2_1
*CAP
1 *1377:C 0.000148458
2 *1380:A2 0
3 *1376:Y 0.000861175
4 *122:16 0.00116574
5 *122:10 0.00150916
6 *122:6 0.00105613
7 *1377:C *147:16 0.000403826
8 *1377:C *200:6 5.83345e-06
9 *1377:C *207:106 5.81707e-06
10 *1377:C *221:48 0.000380432
11 *122:10 *147:16 0.000302018
12 *122:10 *207:106 0.000134855
13 *122:16 *220:102 0.000301116
14 *1380:B1 *122:16 0.000295021
15 *1380:C1 *122:16 0.000308033
16 *74:20 *122:6 0.00112093
*RES
1 *1376:Y *122:6 35.5321 
2 *122:6 *122:10 19.3707 
3 *122:10 *122:16 34.6993 
4 *122:16 *1380:A2 23 
5 *122:10 *1377:C 43.655 
*END

*D_NET *123 0.00671414
*CONN
*I *1378:A I *D sky130_fd_sc_hd__buf_1
*I *1377:X O *D sky130_fd_sc_hd__and3_1
*CAP
1 *1378:A 2.82203e-05
2 *1377:X 0.00116417
3 *123:10 0.00162604
4 *123:6 0.002762
5 *1378:A *195:14 2.93747e-05
6 *123:6 *200:6 0.000465088
7 *123:10 *124:30 7.29307e-05
8 *123:10 *179:93 0
9 *123:10 *192:20 0
10 seg[0] *123:10 0
11 *43:10 *123:10 0.000375722
12 *44:8 *123:10 0.000190591
*RES
1 *1377:X *123:6 38.3907 
2 *123:6 *123:10 48.2464 
3 *123:10 *1378:A 38.6214 
*END

*D_NET *124 0.0231619
*CONN
*I *1380:A1 I *D sky130_fd_sc_hd__a211oi_2
*I *1379:Y O *D sky130_fd_sc_hd__inv_2
*CAP
1 *1380:A1 0
2 *1379:Y 0.000456297
3 *124:30 0.0078267
4 *124:14 0.00828299
5 *124:14 *136:8 7.4469e-06
6 *124:14 *164:10 6.10551e-06
7 *124:14 *172:22 2.22828e-05
8 *124:30 *126:28 0.000521794
9 *124:30 *155:63 0.000514476
10 *124:30 *165:18 0.000112317
11 *124:30 *172:22 0.000860114
12 *124:30 *174:22 0.000582292
13 *124:30 *192:20 0.000105668
14 *124:30 *200:18 2.42178e-06
15 *124:30 *209:39 0
16 *1526:RESET_B *124:30 0.00148146
17 *11:17 *124:30 0.00204602
18 *85:20 *124:30 0.000111145
19 *103:24 *124:30 6.46287e-05
20 *109:38 *124:30 8.48605e-05
21 *123:10 *124:30 7.29307e-05
*RES
1 *1379:Y *124:14 47.1181 
2 *124:14 *124:30 45.1278 
3 *124:30 *1380:A1 23 
*END

*D_NET *125 0.00759444
*CONN
*I *1383:A I *D sky130_fd_sc_hd__and3_1
*I *1381:X O *D sky130_fd_sc_hd__or2_1
*CAP
1 *1383:A 0
2 *1381:X 0.000798629
3 *125:24 0.000114493
4 *125:18 0.00163075
5 *125:8 0.00231489
6 *125:8 *180:80 0.000167288
7 *125:8 *180:90 5.3304e-05
8 *125:18 *169:8 2.11066e-05
9 *125:18 *215:31 0.000554053
10 *125:18 *215:35 0.000145943
11 *125:18 *223:25 0.000539929
12 *125:24 *155:63 0.000120432
13 *125:24 *210:56 1.02032e-05
14 *1381:B *125:8 5.3304e-05
15 *29:32 *125:24 0.000177828
16 *44:12 *125:18 0.000138607
17 *86:55 *125:18 2.43944e-05
18 *89:14 *125:18 0.000723664
19 *105:96 *125:24 5.62433e-06
*RES
1 *1381:X *125:8 49.5793 
2 *125:8 *125:18 41.8457 
3 *125:18 *125:24 32.61 
4 *125:24 *1383:A 23 
*END

*D_NET *126 0.016031
*CONN
*I *1383:C I *D sky130_fd_sc_hd__and3_1
*I *1382:Y O *D sky130_fd_sc_hd__nand2_1
*CAP
1 *1383:C 0.00131386
2 *1382:Y 0.000184866
3 *126:28 0.0053019
4 *126:12 0.0041729
5 *1383:C *1521:CLK 0.000203498
6 *1383:C *155:63 0.000120646
7 *1383:C *183:77 0.000229882
8 *1383:C *191:30 5.33861e-05
9 *126:12 *138:10 2.26497e-05
10 *126:12 *191:51 0.000228233
11 *126:28 *162:24 0.000264705
12 *126:28 *174:22 0.00146161
13 *126:28 *224:59 0.000185018
14 *126:28 *224:65 0.000113946
15 *1521:D *1383:C 5.8147e-05
16 *1521:RESET_B *1383:C 0.000721115
17 *1526:RESET_B *126:28 4.93248e-05
18 *23:14 *1383:C 0.000333683
19 *82:18 *126:28 2.27289e-05
20 *103:24 *126:28 8.44178e-05
21 *104:16 *126:12 7.57281e-06
22 *104:16 *126:28 0.000357491
23 *105:96 *1383:C 1.76557e-05
24 *124:30 *126:28 0.000521794
*RES
1 *1382:Y *126:12 48.8482 
2 *126:12 *126:28 48.6619 
3 *126:28 *1383:C 48.3336 
*END

*D_NET *127 0.00925294
*CONN
*I *1384:A I *D sky130_fd_sc_hd__buf_1
*I *1383:X O *D sky130_fd_sc_hd__and3_1
*CAP
1 *1384:A 0.000615892
2 *1383:X 3.38397e-05
3 *127:12 0.00213319
4 *127:8 0.00155114
5 *1384:A *129:30 0.000229122
6 *1384:A *189:34 0.00171032
7 *1384:A *220:12 0.000594365
8 *127:8 *155:63 0.000188934
9 *127:12 *1429:C 5.1986e-06
10 *127:12 *160:33 0.00010343
11 *127:12 *168:20 7.41575e-05
12 *127:12 *187:66 0
13 *29:32 *127:12 0
14 *44:20 *127:8 0.000188934
15 *86:22 *127:12 0.000263224
16 *86:34 *127:12 0.000699728
17 *90:8 *127:12 0.000494794
18 *90:18 *127:12 0.000100931
19 *103:63 *127:12 3.98082e-06
20 *103:73 *127:12 0.00026176
21 *115:60 *127:12 0
*RES
1 *1383:X *127:8 40.0507 
2 *127:8 *127:12 44.0207 
3 *127:12 *1384:A 42.2021 
*END

*D_NET *128 0.0101569
*CONN
*I *1387:B I *D sky130_fd_sc_hd__nor3_1
*I *1385:Y O *D sky130_fd_sc_hd__a21oi_1
*CAP
1 *1387:B 0
2 *1385:Y 0.0005301
3 *128:22 0.000375869
4 *128:14 0.00146277
5 *128:10 0.001617
6 *128:10 *137:18 0.000178517
7 *128:10 *153:32 3.02038e-05
8 *128:10 *156:10 0
9 *128:10 *212:10 0.000577429
10 *128:14 *139:41 0.000664466
11 *128:14 *170:26 0.000568345
12 *128:14 *171:6 0.00206195
13 *128:22 *201:37 0.000809792
14 *128:22 *218:34 0.000215791
15 *36:12 *128:22 0.000812124
16 *115:28 *128:10 9.5877e-05
17 *115:76 *128:10 0.000156628
*RES
1 *1385:Y *128:10 49.1443 
2 *128:10 *128:14 47.0657 
3 *128:14 *128:22 42.1593 
4 *128:22 *1387:B 23 
*END

*D_NET *129 0.0343955
*CONN
*I *1392:A2 I *D sky130_fd_sc_hd__a21oi_1
*I *1387:C I *D sky130_fd_sc_hd__nor3_1
*I *1393:C I *D sky130_fd_sc_hd__and3_2
*I *1388:B I *D sky130_fd_sc_hd__or2_1
*I *1409:D I *D sky130_fd_sc_hd__and4_1
*I *1389:B I *D sky130_fd_sc_hd__nand2_1
*I *1386:X O *D sky130_fd_sc_hd__and4_2
*CAP
1 *1392:A2 7.50924e-05
2 *1387:C 0
3 *1393:C 0
4 *1388:B 0
5 *1409:D 0
6 *1389:B 0.0002727
7 *1386:X 3.00574e-05
8 *129:84 0.000341198
9 *129:71 0.00111855
10 *129:30 0.00063968
11 *129:24 0.000562594
12 *129:20 0.00149649
13 *129:16 0.00242386
14 *129:14 0.00194045
15 *129:12 0.000115208
16 *129:10 0.00232614
17 *129:8 0.0023562
18 *1389:B *143:8 5.58003e-05
19 *1389:B *178:18 5.40292e-05
20 *1389:B *200:75 8.47785e-05
21 *1389:B *200:88 0
22 *1389:B *200:97 0
23 *1392:A2 *201:62 5.3304e-05
24 *129:8 *1394:C 5.3304e-05
25 *129:10 *1343:B 7.47665e-05
26 *129:10 *142:16 0.000615161
27 *129:10 *165:26 0.000152171
28 *129:10 *165:32 0.000867928
29 *129:10 *195:33 0.00013262
30 *129:10 *201:62 1.83667e-05
31 *129:10 *216:18 0.000163716
32 *129:10 *220:89 0.000211448
33 *129:10 *222:18 7.97389e-05
34 *129:16 *137:10 0.002918
35 *129:16 *217:41 0.000550761
36 *129:20 *137:10 0.000385463
37 *129:24 *200:97 4.6318e-06
38 *129:24 *200:110 8.76402e-05
39 *129:30 *146:12 1.27321e-05
40 *129:30 *178:18 6.02277e-06
41 *129:30 *200:97 0
42 *129:71 *1393:A 4.37838e-05
43 *129:71 *134:10 6.17437e-06
44 *129:71 *134:73 0.000344025
45 *129:71 *135:18 0
46 *129:71 *146:20 0.000155865
47 *129:71 *166:10 0.000180084
48 *129:71 *176:27 0.000444973
49 *129:71 *196:16 0.00081323
50 *129:71 *200:110 0.000164107
51 *129:84 *130:10 0.000108681
52 *129:84 *215:31 0.000593262
53 *129:84 *218:42 0.000139352
54 *1334:B *129:16 0.000382061
55 *1334:B *129:20 6.17437e-06
56 *1374:C *129:10 0.000423756
57 *1384:A *129:30 0.000229122
58 *22:8 *129:8 1.59094e-05
59 *27:12 *129:10 0.000781298
60 *36:12 *129:84 0.000137651
61 *37:10 *129:10 0.000281805
62 *85:24 *129:16 0.00213072
63 *95:83 *129:16 0.000175066
64 *95:98 *129:16 0.000705549
65 *95:109 *129:10 0.000360819
66 *96:12 *129:10 9.42314e-05
67 *96:19 *129:10 7.9474e-05
68 *98:14 *129:24 0
69 *98:14 *129:30 0.000427222
70 *100:14 *129:10 3.96175e-05
71 *111:14 *129:84 0.000226886
72 *115:40 *129:20 0.000120716
73 *116:6 *1392:A2 4.39488e-05
74 *116:6 *129:16 0.000819318
75 *119:14 *129:10 0.000539977
76 *120:10 *129:10 0.00158353
77 *120:18 *129:10 0.000231203
78 *120:20 *129:10 0.0012853
*RES
1 *1386:X *129:8 38.6214 
2 *129:8 *129:10 67.7564 
3 *129:10 *129:12 15 
4 *129:12 *129:14 0.849286 
5 *129:14 *129:16 56.84 
6 *129:16 *129:20 19.4329 
7 *129:20 *129:24 17.9621 
8 *129:24 *129:30 23.6586 
9 *129:30 *1389:B 43.6964 
10 *129:30 *1409:D 38 
11 *129:24 *1388:B 23 
12 *129:20 *129:71 41.0171 
13 *129:71 *1393:C 23 
14 *129:16 *129:84 39.8186 
15 *129:84 *1387:C 23 
16 *129:12 *1392:A2 24.5743 
*END

*D_NET *130 0.0173145
*CONN
*I *1390:B I *D sky130_fd_sc_hd__and3_1
*I *1388:X O *D sky130_fd_sc_hd__or2_1
*CAP
1 *1390:B 0.000924245
2 *1388:X 0.000149209
3 *130:20 0.00402458
4 *130:12 0.00310033
5 *130:10 0.00127174
6 *130:8 0.00142095
7 *130:10 *180:90 5.46821e-05
8 *130:10 *194:12 0
9 *130:10 *215:31 2.24151e-05
10 *33:16 *130:20 0.000254143
11 *54:28 *130:20 6.86547e-05
12 *60:18 *130:10 0.000629358
13 *87:32 *130:20 4.32222e-05
14 *87:44 *130:20 0.000261206
15 *88:6 *130:20 2.04034e-05
16 *88:12 *130:20 0.000118935
17 *89:14 *130:10 0.0027401
18 *94:10 *130:10 0.000186886
19 *95:12 *130:8 0.000180224
20 *105:128 *130:10 0.000144169
21 *107:34 *130:20 1.71615e-05
22 *109:18 *130:20 0.00010124
23 *110:30 *130:10 5.08422e-06
24 *111:14 *130:10 0.000937844
25 *121:16 *1390:B 0.000329691
26 *121:16 *130:20 0.000199395
27 *129:84 *130:10 0.000108681
*RES
1 *1388:X *130:8 40.0507 
2 *130:8 *130:10 39.585 
3 *130:10 *130:12 15 
4 *130:12 *130:20 38.4457 
5 *130:20 *1390:B 34.5793 
*END

*D_NET *131 0.0206684
*CONN
*I *1390:C I *D sky130_fd_sc_hd__and3_1
*I *1389:Y O *D sky130_fd_sc_hd__nand2_1
*CAP
1 *1390:C 0.000294659
2 *1389:Y 3.27471e-05
3 *131:24 0.00782663
4 *131:10 0.00756472
5 *131:24 *1336:A1 0.000144449
6 *131:24 *153:32 0.000101143
7 *131:24 *157:10 8.32598e-05
8 *131:24 *162:24 0
9 *131:24 *182:12 5.32879e-05
10 *131:24 *182:66 0
11 *131:24 *185:16 4.32962e-05
12 *131:24 *185:22 2.51583e-05
13 *131:24 *217:10 0.000207919
14 *1377:A *1390:C 9.20005e-05
15 *1519:RESET_B *131:24 0.000435102
16 *23:14 *131:24 0.000242014
17 *39:12 *131:24 0.000669875
18 *78:10 *131:24 0.000131276
19 *81:14 *131:24 2.11066e-05
20 *85:20 *131:24 0.000268351
21 *87:22 *131:24 0.000154794
22 *98:35 *131:24 0
23 *104:16 *131:24 0.00182794
24 *107:34 *131:24 1.0092e-05
25 *109:38 *131:24 0.000173248
26 *110:24 *131:24 0
27 *115:132 *1390:C 0.00026528
28 *117:20 *131:24 0
*RES
1 *1389:Y *131:10 46.6732 
2 *131:10 *131:24 44.1635 
3 *131:24 *1390:C 42.0393 
*END

*D_NET *132 0.00690532
*CONN
*I *1391:A I *D sky130_fd_sc_hd__clkbuf_1
*I *1390:X O *D sky130_fd_sc_hd__and3_1
*CAP
1 *1391:A 0
2 *1390:X 9.18157e-05
3 *132:14 0.00122846
4 *132:8 0.00132028
5 *132:8 *174:8 5.3304e-05
6 *132:14 *1347:D 0.00022034
7 *132:14 *138:10 0.0010258
8 *132:14 *142:26 0.00103284
9 *132:14 *174:22 0.00073607
10 *132:14 *179:110 4.15283e-06
11 *132:14 *180:27 6.15174e-05
12 *132:14 *188:12 0.000447005
13 *1377:A *132:8 2.09226e-05
14 *57:8 *132:14 0.000595782
15 *104:37 *132:14 6.70361e-05
*RES
1 *1390:X *132:8 39.0979 
2 *132:8 *132:14 49.4271 
3 *132:14 *1391:A 23 
*END

*D_NET *133 0.0107006
*CONN
*I *1394:B I *D sky130_fd_sc_hd__nor3_1
*I *1392:Y O *D sky130_fd_sc_hd__a21oi_1
*CAP
1 *1394:B 5.51096e-05
2 *1392:Y 0.000151434
3 *133:10 0.00354289
4 *133:8 0.00363922
5 *1394:B *1394:C 3.71369e-05
6 *133:8 *200:30 6.46936e-05
7 *133:8 *201:62 4.84129e-06
8 *133:10 *1422:C 8.71559e-05
9 *133:10 *145:12 0
10 *133:10 *179:39 5.36298e-05
11 *133:10 *181:149 0.000157564
12 *133:10 *181:162 0.000200982
13 *133:10 *181:172 0.000293984
14 *133:10 *199:120 0.000212218
15 *133:10 *200:18 0
16 *133:10 *200:30 0
17 *133:10 *207:81 0.000207543
18 *133:10 *208:69 0.000160906
19 *133:10 *209:72 0.000768617
20 *133:10 *210:106 4.8984e-05
21 *1394:A *133:10 0
22 *22:8 *1394:B 9.84851e-05
23 *35:10 *133:10 0
24 *47:93 *133:10 0
25 *76:18 *133:10 0
26 *76:36 *133:10 0
27 *84:12 *133:10 0.000419204
28 *116:6 *133:8 0.000496007
*RES
1 *1392:Y *133:8 43.3857 
2 *133:8 *133:10 67.7564 
3 *133:10 *1394:B 39.5743 
*END

*D_NET *134 0.035114
*CONN
*I *1399:A2 I *D sky130_fd_sc_hd__a21o_1
*I *1395:B I *D sky130_fd_sc_hd__or2_1
*I *1394:C I *D sky130_fd_sc_hd__nor3_1
*I *1400:C I *D sky130_fd_sc_hd__nand3_2
*I *1396:B I *D sky130_fd_sc_hd__nand2_1
*I *1393:X O *D sky130_fd_sc_hd__and3_2
*CAP
1 *1399:A2 0
2 *1395:B 0
3 *1394:C 0.000986441
4 *1400:C 0
5 *1396:B 0.000451041
6 *1393:X 0
7 *134:94 0.00048154
8 *134:79 0.000366208
9 *134:73 0.00206185
10 *134:47 0.00174816
11 *134:35 0.00195393
12 *134:29 0.0015947
13 *134:14 0.00085354
14 *134:12 0.00158629
15 *134:10 0.00164615
16 *134:4 0.00127396
17 *1394:C *224:100 0.000528025
18 *1394:C *225:41 0.000474176
19 *134:12 *201:14 0.000977804
20 *134:29 *151:12 0
21 *134:29 *187:12 8.26478e-05
22 *134:35 *153:10 0
23 *134:35 *202:42 3.70187e-05
24 *134:47 *202:42 0.00217764
25 *134:47 *213:25 0.00104264
26 *134:47 *225:41 0.000139352
27 *134:73 *1393:A 3.04642e-05
28 *134:73 *1430:A 0.000220592
29 *134:73 *144:12 0.000266348
30 *134:73 *153:16 0.000101436
31 *134:73 *183:12 0.00118345
32 *134:73 *183:51 9.77405e-05
33 *134:73 *187:58 0.000444828
34 *134:73 *200:110 0.000231145
35 *134:79 *188:90 0.000125259
36 *134:79 *202:63 0.00027785
37 *134:94 *1399:A1 0.000551542
38 *134:94 *153:16 7.17698e-05
39 *134:94 *202:57 3.70187e-05
40 *134:94 *202:63 0.000416879
41 *134:94 *222:14 0.000178517
42 *230:DIODE *1394:C 0.000226479
43 *1386:D *1394:C 0.000221997
44 *1394:B *1394:C 3.71369e-05
45 *1495:D *134:35 0.000259096
46 *1514:RESET_B *134:94 0.000278255
47 *1522:D *134:79 0.000310158
48 *20:10 *134:12 0.00357056
49 *20:10 *134:29 0
50 *20:16 *134:35 0.00130338
51 *22:8 *1394:C 0.000195197
52 *22:12 *134:47 0.000219313
53 *32:6 *134:73 0.000559363
54 *38:14 *134:79 3.19892e-06
55 *38:14 *134:94 0.000441513
56 *41:22 *134:12 0.000356277
57 *41:22 *134:29 0.000233369
58 *45:14 *134:12 0.000518269
59 *45:26 *134:12 0
60 *47:28 *134:79 5.91105e-05
61 *47:43 *134:73 1.57659e-05
62 *49:12 *134:73 0.000257636
63 *49:12 *134:94 0.000128918
64 *57:14 *134:79 1.05441e-05
65 *65:10 *134:47 0.000185368
66 *94:16 *134:73 0.000139745
67 *95:113 *1394:C 5.56279e-05
68 *98:12 *134:12 0
69 *105:66 *134:73 0.000218471
70 *105:138 *134:29 2.88065e-05
71 *113:26 *134:35 1.01436e-05
72 *114:18 *134:12 0
73 *114:18 *134:29 0.00016885
74 *129:8 *1394:C 5.3304e-05
75 *129:71 *134:10 6.17437e-06
76 *129:71 *134:73 0.000344025
*RES
1 *1393:X *134:4 23 
2 *134:4 *134:10 16.595 
3 *134:10 *134:12 48.0364 
4 *134:12 *134:14 15 
5 *134:14 *1396:B 30.7679 
6 *134:14 *134:29 39.9636 
7 *134:29 *134:35 40.0229 
8 *134:35 *134:47 44.4143 
9 *134:47 *1400:C 23 
10 *134:47 *1394:C 47.4843 
11 *134:4 *134:73 33.2257 
12 *134:73 *134:79 38.9486 
13 *134:79 *1395:B 23 
14 *134:73 *134:94 44.0443 
15 *134:94 *1399:A2 23 
*END

*D_NET *135 0.0075693
*CONN
*I *1397:B I *D sky130_fd_sc_hd__and3_1
*I *1395:X O *D sky130_fd_sc_hd__or2_1
*CAP
1 *1397:B 0
2 *1395:X 0.00137124
3 *135:18 0.000771179
4 *135:10 0.00214242
5 *135:10 *1429:C 0.000169905
6 *135:10 *1438:A 0.00085244
7 *135:10 *159:30 0.000514848
8 *135:10 *176:39 6.19192e-05
9 *135:18 *137:8 0.000523023
10 *135:18 *176:27 2.42513e-05
11 *1429:A *135:10 0.000132843
12 *90:18 *135:10 7.0561e-05
13 *98:14 *135:18 0.00075138
14 *105:45 *135:10 0.00018329
15 *129:71 *135:18 0
*RES
1 *1395:X *135:10 48.9136 
2 *135:10 *135:18 45.8671 
3 *135:18 *1397:B 23 
*END

*D_NET *136 0.0105998
*CONN
*I *1397:C I *D sky130_fd_sc_hd__and3_1
*I *1396:Y O *D sky130_fd_sc_hd__nand2_1
*CAP
1 *1397:C 0.00052706
2 *1396:Y 0
3 *136:8 0.00285343
4 *136:6 0.00232637
5 *1397:C *137:8 1.81173e-05
6 *136:8 *1345:C 0.000197145
7 *136:8 *1396:A 0.000324819
8 *136:8 *164:10 0
9 *136:8 *172:10 0
10 *136:8 *204:70 0.000167275
11 *136:8 *205:58 4.68995e-05
12 *136:8 *209:14 0.000149611
13 *136:8 *219:16 0.00398164
14 *124:14 *136:8 7.4469e-06
*RES
1 *1396:Y *136:6 38 
2 *136:6 *136:8 63.1786 
3 *136:8 *1397:C 44.2039 
*END

*D_NET *137 0.0125962
*CONN
*I *1398:A I *D sky130_fd_sc_hd__buf_1
*I *1397:X O *D sky130_fd_sc_hd__and3_1
*CAP
1 *1398:A 0
2 *1397:X 0.000362505
3 *137:18 0.000379554
4 *137:10 0.00303456
5 *137:8 0.00301751
6 *137:18 *153:32 0.000744494
7 *137:18 *189:32 0.000257019
8 *1397:C *137:8 1.81173e-05
9 *91:22 *137:18 0
10 *115:28 *137:18 0.000551954
11 *115:40 *137:8 0.000218914
12 *115:40 *137:10 6.57815e-06
13 *128:10 *137:18 0.000178517
14 *129:16 *137:10 0.002918
15 *129:20 *137:10 0.000385463
16 *135:18 *137:8 0.000523023
*RES
1 *1397:X *137:8 32.2179 
2 *137:8 *137:10 37.7829 
3 *137:10 *137:18 41.9107 
4 *137:18 *1398:A 23 
*END

*D_NET *138 0.0157847
*CONN
*I *1401:B I *D sky130_fd_sc_hd__and3_1
*I *1399:X O *D sky130_fd_sc_hd__a21o_1
*CAP
1 *1401:B 0
2 *1399:X 0.000546037
3 *138:20 7.79692e-05
4 *138:14 0.00221492
5 *138:10 0.00364323
6 *138:8 0.00150628
7 *138:6 0.000546037
8 *138:6 *1399:B1 5.50106e-05
9 *138:6 *155:18 0.000927176
10 *138:6 *203:12 0.00168691
11 *138:6 *209:35 0.000734753
12 *138:6 *214:28 3.88133e-05
13 *138:10 *167:26 0.000259881
14 *138:10 *180:27 0.00107834
15 *138:10 *188:12 8.71517e-06
16 *138:10 *217:41 0.000184582
17 *138:10 *224:71 0
18 *138:14 *200:46 0.000844859
19 *104:16 *138:10 0.00032994
20 *104:37 *138:10 5.27958e-05
21 *126:12 *138:10 2.26497e-05
22 *132:14 *138:10 0.0010258
*RES
1 *1399:X *138:6 42.6786 
2 *138:6 *138:8 15 
3 *138:8 *138:10 35.7114 
4 *138:10 *138:14 43.7307 
5 *138:14 *138:20 31.2014 
6 *138:20 *1401:B 23 
*END

*D_NET *139 0.0363352
*CONN
*I *1404:B I *D sky130_fd_sc_hd__nand2_1
*I *1405:B I *D sky130_fd_sc_hd__or2_1
*I *232:DIODE I *D sky130_fd_sc_hd__diode_2
*I *1401:C I *D sky130_fd_sc_hd__and3_1
*I *1400:Y O *D sky130_fd_sc_hd__nand3_2
*CAP
1 *1404:B 0.00018057
2 *1405:B 0
3 *232:DIODE 6.65363e-05
4 *1401:C 0
5 *1400:Y 0.000313507
6 *139:55 0.000713714
7 *139:51 0.00167249
8 *139:41 0.0037158
9 *139:39 0.00269048
10 *139:32 0.00139764
11 *139:26 0.00632632
12 *139:14 0.00657811
13 *139:8 0.00178236
14 *232:DIODE *216:68 5.68958e-05
15 *1404:B *150:38 0.000104603
16 *1404:B *219:48 5.18286e-05
17 *139:14 *150:38 0.0014187
18 *139:14 *207:26 0
19 *139:14 *207:73 6.14353e-05
20 *139:14 *226:52 0.000121649
21 *139:26 *145:12 0
22 *139:26 *169:34 4.62763e-05
23 *139:26 *195:33 0.000370761
24 *139:26 *200:36 0.000516841
25 *139:32 *1494:A 9.52618e-05
26 *139:32 *200:36 0.000323831
27 *139:41 *1411:A2 0.000817315
28 *139:41 *143:30 7.44257e-05
29 *139:41 *170:26 0.000827668
30 *139:51 *143:8 4.07675e-05
31 *139:51 *215:16 0.000847257
32 *139:51 *216:54 0
33 *139:51 *218:34 0
34 *139:55 *1405:A 2.64616e-05
35 *139:55 *143:8 0.00101465
36 *1362:B *139:55 0.000141344
37 *1401:A *139:32 0.000474867
38 *1503:RESET_B *139:14 0.000325215
39 *1510:RESET_B *1404:B 5.58152e-06
40 *22:12 *139:8 0.000390673
41 *27:8 *1404:B 5.13404e-05
42 *52:16 *139:32 0.00105929
43 *76:42 *139:14 0.000308849
44 *87:22 *139:26 1.26232e-05
45 *100:14 *139:26 0.000143531
46 *103:73 *139:51 0.000503289
47 *128:14 *139:41 0.000664466
*RES
1 *1400:Y *139:8 42.4329 
2 *139:8 *139:14 20.9419 
3 *139:14 *139:26 45.0107 
4 *139:26 *139:32 38.4382 
5 *139:32 *1401:C 23 
6 *139:26 *139:39 15 
7 *139:39 *139:41 49.6936 
8 *139:41 *139:51 47.835 
9 *139:51 *139:55 13.8579 
10 *139:55 *232:DIODE 24.5743 
11 *139:55 *1405:B 23 
12 *139:14 *1404:B 47.6378 
*END

*D_NET *140 0.0102631
*CONN
*I *1402:A I *D sky130_fd_sc_hd__clkbuf_1
*I *1401:X O *D sky130_fd_sc_hd__and3_1
*CAP
1 *1402:A 0.00126494
2 *1401:X 0.000277504
3 *140:12 0.00216417
4 *140:8 0.00117674
5 *1402:A *165:26 0.000353894
6 *49:12 *1402:A 0.000912113
7 *52:10 *140:8 0.000535883
8 *116:12 *140:12 0.000813567
9 *117:26 *140:12 0.000628009
10 *118:10 *140:12 0.00213626
*RES
1 *1401:X *140:8 43.8621 
2 *140:8 *140:12 44.0207 
3 *140:12 *1402:A 46.49 
*END

*D_NET *141 0.0266304
*CONN
*I *1404:A I *D sky130_fd_sc_hd__nand2_1
*I *1405:A I *D sky130_fd_sc_hd__or2_1
*I *1403:Y O *D sky130_fd_sc_hd__inv_2
*CAP
1 *1404:A 0
2 *1405:A 3.7863e-05
3 *1403:Y 0
4 *141:43 0.000498715
5 *141:35 0.00139491
6 *141:16 0.00250657
7 *141:14 0.00586579
8 *141:4 0.00429328
9 *141:14 *1339:A2 2.11066e-05
10 *141:14 *150:28 0.000131068
11 *141:14 *158:18 5.63225e-05
12 *141:14 *225:35 6.10551e-06
13 *141:16 *1519:CLK 0.00021739
14 *141:16 *151:16 2.60152e-05
15 *141:16 *164:10 0
16 *141:16 *172:10 0
17 *141:16 *183:18 0.00060949
18 *141:16 *183:20 0.00126682
19 *141:16 *216:60 4.89774e-05
20 *141:35 *149:14 0.000156945
21 *141:35 *204:39 0.000382849
22 *141:35 *212:36 0.000199072
23 *141:43 *142:16 9.41704e-05
24 *141:43 *205:10 0.000613634
25 *141:43 *205:44 8.35537e-05
26 *1510:RESET_B *141:43 0.00030373
27 *20:10 *141:16 0
28 *26:20 *141:43 7.70087e-05
29 *28:8 *141:16 0.0015995
30 *39:22 *141:14 0.00032355
31 *40:26 *141:14 0.0028617
32 *45:26 *141:14 2.21565e-05
33 *77:14 *141:35 0.000159186
34 *84:14 *141:35 0.000666931
35 *84:20 *141:35 9.41704e-05
36 *95:109 *141:43 0.000684896
37 *108:18 *141:14 0.0011754
38 *120:62 *141:14 0.000125095
39 *139:55 *1405:A 2.64616e-05
*RES
1 *1403:Y *141:4 23 
2 *141:4 *141:14 41.2517 
3 *141:14 *141:16 59.1289 
4 *141:16 *1405:A 38.6214 
5 *141:4 *141:35 45.4114 
6 *141:35 *141:43 43.1329 
7 *141:43 *1404:A 23 
*END

*D_NET *142 0.011464
*CONN
*I *1406:B I *D sky130_fd_sc_hd__and3_1
*I *1404:Y O *D sky130_fd_sc_hd__nand2_1
*CAP
1 *1406:B 0
2 *1404:Y 0.000429158
3 *142:34 0.000752505
4 *142:26 0.001615
5 *142:22 0.00113409
6 *142:16 0.000700747
7 *142:26 *174:22 1.07299e-05
8 *142:26 *179:110 7.01431e-05
9 *142:26 *179:127 8.47448e-05
10 *142:26 *185:53 0.000211272
11 *142:26 *188:12 0.000881404
12 *142:26 *188:21 0.00102093
13 *142:26 *204:39 0.000161121
14 *142:34 *155:18 0.000842829
15 *142:34 *179:10 8.62783e-05
16 *142:34 *225:35 8.85189e-05
17 *1510:RESET_B *142:16 1.21972e-05
18 *26:20 *142:16 9.38785e-05
19 *50:16 *142:22 0.000306344
20 *84:14 *142:22 0.000596729
21 *96:19 *142:16 0.000606766
22 *117:20 *142:26 1.64319e-05
23 *129:10 *142:16 0.000615161
24 *132:14 *142:26 0.00103284
25 *141:43 *142:16 9.41704e-05
*RES
1 *1404:Y *142:16 49.31 
2 *142:16 *142:22 36.815 
3 *142:22 *142:26 41.2036 
4 *142:26 *142:34 40.875 
5 *142:34 *1406:B 23 
*END

*D_NET *143 0.020501
*CONN
*I *1411:A2 I *D sky130_fd_sc_hd__a211oi_1
*I *1406:C I *D sky130_fd_sc_hd__and3_1
*I *1405:X O *D sky130_fd_sc_hd__or2_1
*CAP
1 *1411:A2 0.00119173
2 *1406:C 1.83048e-05
3 *1405:X 0.000599417
4 *143:30 0.00105458
5 *143:24 0.002228
6 *143:22 0.00059066
7 *143:14 0.001972
8 *143:8 0.00198076
9 *1411:A2 *1411:A1 0.000320042
10 *143:8 *200:88 9.79925e-05
11 *143:8 *215:16 0.000669525
12 *143:14 *1336:A1 0.000938046
13 *143:14 *1336:B1 5.82853e-05
14 *143:14 *1351:C1 5.8118e-05
15 *143:14 *156:10 0.000104277
16 *143:14 *191:93 0
17 *143:14 *215:16 1.10658e-05
18 *143:22 *207:122 0.000143869
19 *143:22 *224:65 0.000295486
20 *143:30 *155:34 0.000923927
21 *143:30 *179:10 0.000479342
22 *143:30 *179:18 0.000245336
23 *143:30 *207:122 0.000162786
24 *143:30 *224:59 8.65616e-06
25 *143:30 *224:65 0
26 *143:30 *225:35 0.000774562
27 *143:30 *225:54 0.000411806
28 *1349:B1 *143:14 0.000628379
29 *1351:A1 *143:8 0.000450337
30 *1389:B *143:8 5.58003e-05
31 *1411:C1 *1411:A2 5.50106e-05
32 *1508:RESET_B *1406:C 1.95448e-05
33 *31:10 *143:22 0.00060829
34 *91:14 *143:14 0
35 *91:22 *143:14 0.000133316
36 *99:10 *143:14 0
37 *102:16 *143:8 3.81033e-05
38 *102:16 *143:14 0.000982478
39 *104:16 *143:14 0.000109884
40 *105:14 *143:30 5.26657e-05
41 *110:30 *143:8 2.95423e-05
42 *111:14 *143:8 9.70259e-06
43 *112:10 *143:8 2.83509e-05
44 *115:20 *143:30 1.39162e-05
45 *139:41 *1411:A2 0.000817315
46 *139:41 *143:30 7.44257e-05
47 *139:51 *143:8 4.07675e-05
48 *139:55 *143:8 0.00101465
*RES
1 *1405:X *143:8 43.0514 
2 *143:8 *143:14 48.6814 
3 *143:14 *143:22 40.8336 
4 *143:22 *143:24 15 
5 *143:24 *143:30 41.0171 
6 *143:30 *1406:C 38.2279 
7 *143:24 *1411:A2 48.8721 
*END

*D_NET *144 0.0173815
*CONN
*I *1407:A I *D sky130_fd_sc_hd__buf_1
*I *1406:X O *D sky130_fd_sc_hd__and3_1
*CAP
1 *1407:A 0.000276917
2 *1406:X 3.89734e-05
3 *144:24 0.00126747
4 *144:16 0.00181598
5 *144:12 0.00364726
6 *144:10 0.00282183
7 *144:8 3.89734e-05
8 *1407:A *1342:A 0.000236466
9 *1407:A *1342:C 0.000356799
10 *1407:A *199:68 0.000583129
11 *1407:A *218:42 0.000356654
12 *1407:A *219:20 3.29546e-05
13 *144:8 *212:10 8.62876e-05
14 *144:8 *225:35 8.62876e-05
15 *144:12 *1430:A 6.69016e-05
16 *144:12 *153:16 0.00122133
17 *144:12 *187:58 0.000442508
18 *144:16 *210:29 2.8241e-05
19 *144:16 *216:42 0.00166975
20 *144:24 *1409:A 8.94487e-05
21 *144:24 *183:20 0
22 *144:24 *201:16 0.000130433
23 *78:6 *144:12 0.000700112
24 *88:64 *144:12 7.65159e-05
25 *94:20 *144:16 0.000827183
26 *105:66 *144:12 0.00021677
27 *134:73 *144:12 0.000266348
*RES
1 *1406:X *144:8 39.2014 
2 *144:8 *144:10 15 
3 *144:10 *144:12 38.2593 
4 *144:12 *144:16 39.0907 
5 *144:16 *144:24 44.5414 
6 *144:24 *1407:A 49.745 
*END

*D_NET *145 0.00735784
*CONN
*I *1411:A1 I *D sky130_fd_sc_hd__a211oi_1
*I *1408:Y O *D sky130_fd_sc_hd__inv_2
*CAP
1 *1411:A1 0.000445047
2 *1408:Y 0.000724392
3 *145:12 0.00126278
4 *145:6 0.00154213
5 *145:6 *1408:A 0.000465342
6 *145:6 *168:32 0.000726277
7 *145:6 *181:149 9.41704e-05
8 *145:12 *181:172 0
9 *145:12 *200:30 0.00057053
10 *145:12 *203:77 0.00023273
11 *145:12 *209:59 6.032e-05
12 *1344:A *145:6 0.000606734
13 *1411:A2 *1411:A1 0.000320042
14 *1411:C1 *1411:A1 1.76557e-05
15 *37:16 *145:6 0.000265277
16 *97:10 *145:6 2.44078e-05
17 *100:14 *145:12 0
18 *133:10 *145:12 0
19 *139:26 *145:12 0
*RES
1 *1408:Y *145:6 40.7729 
2 *145:6 *145:12 45.6393 
3 *145:12 *1411:A1 29.815 
*END

*D_NET *146 0.0309528
*CONN
*I *1410:A I *D sky130_fd_sc_hd__clkbuf_4
*I *233:DIODE I *D sky130_fd_sc_hd__diode_2
*I *1409:X O *D sky130_fd_sc_hd__and4_1
*CAP
1 *1410:A 7.9372e-05
2 *233:DIODE 0
3 *1409:X 9.19172e-05
4 *146:26 0.000101946
5 *146:20 0.013958
6 *146:12 0.0140273
7 *1410:A *147:6 0.000230604
8 *146:20 *166:10 0.000351431
9 *146:20 *168:51 0.000157373
10 *146:20 *169:26 0
11 *146:20 *176:27 0.000235868
12 *146:20 *191:14 0.000228355
13 *146:20 *195:33 0
14 *146:20 *196:16 0.000153401
15 *146:20 *200:110 0.000179835
16 *1495:D *146:20 0.000153703
17 *11:17 *146:12 0
18 *25:16 *146:20 0
19 *25:32 *146:20 0
20 *32:10 *146:20 0.000267279
21 *32:18 *146:20 0.000127194
22 *41:22 *146:20 0
23 *47:91 *146:20 0
24 *98:35 *146:12 5.56761e-05
25 *106:27 *146:20 0.000268907
26 *110:30 *146:20 0.000116093
27 *129:30 *146:12 1.27321e-05
28 *129:71 *146:20 0.000155865
*RES
1 *1409:X *146:12 46.5059 
2 *146:12 *146:20 45.8312 
3 *146:20 *146:26 23.3211 
4 *146:26 *233:DIODE 23 
5 *146:26 *1410:A 25.5271 
*END

*D_NET *147 0.0448597
*CONN
*I *1432:C I *D sky130_fd_sc_hd__and4_1
*I *1412:B I *D sky130_fd_sc_hd__or2_1
*I *1413:B I *D sky130_fd_sc_hd__nand2_2
*I *1419:A3 I *D sky130_fd_sc_hd__a31o_1
*I *1442:B I *D sky130_fd_sc_hd__and3_2
*I *1441:A1 I *D sky130_fd_sc_hd__a21oi_2
*I *1421:A4 I *D sky130_fd_sc_hd__a41o_1
*I *1440:B2 I *D sky130_fd_sc_hd__a221oi_1
*I *1423:A I *D sky130_fd_sc_hd__and2_1
*I *1411:B1 I *D sky130_fd_sc_hd__a211oi_1
*I *1410:X O *D sky130_fd_sc_hd__clkbuf_4
*CAP
1 *1432:C 0
2 *1412:B 0
3 *1413:B 0
4 *1419:A3 0
5 *1442:B 0
6 *1441:A1 0.000543555
7 *1421:A4 0
8 *1440:B2 0.000103285
9 *1423:A 0
10 *1411:B1 3.38811e-05
11 *1410:X 0.00115243
12 *147:96 0.00123808
13 *147:84 0.00122762
14 *147:82 0.00135308
15 *147:76 0.00144598
16 *147:72 0.00178018
17 *147:68 0.0012435
18 *147:66 0.000584581
19 *147:57 0.000667133
20 *147:35 0.00163507
21 *147:18 0.00200853
22 *147:16 0.00196222
23 *147:14 0.00224331
24 *147:12 0.000846708
25 *147:10 0.000629402
26 *147:6 0.00148722
27 *1440:B2 *168:40 1.79739e-05
28 *1440:B2 *189:59 8.85386e-05
29 *1440:B2 *195:14 0.000221084
30 *1441:A1 *1441:B1 9.58714e-05
31 *1441:A1 *1506:CLK 0.000116763
32 *1441:A1 *180:70 0.000206032
33 *1441:A1 *180:80 0.000185617
34 *1441:A1 *180:110 9.87387e-05
35 *147:10 *155:76 1.13812e-05
36 *147:10 *221:48 0.000266192
37 *147:12 *155:76 0.000842353
38 *147:12 *212:40 0.00083221
39 *147:14 *155:76 0.000195248
40 *147:14 *212:40 0.000186025
41 *147:16 *155:12 0.00177949
42 *147:16 *155:76 0.000175612
43 *147:16 *207:106 0.000129568
44 *147:16 *207:110 0.000625014
45 *147:16 *212:40 0.000323822
46 *147:16 *221:48 0.00029061
47 *147:18 *207:110 0.000232591
48 *147:35 *181:172 0
49 *147:57 *206:82 0.00111843
50 *147:66 *206:69 0.000991357
51 *147:66 *207:79 0.000175404
52 *147:66 *218:88 0.000130667
53 *147:68 *206:58 0.000181125
54 *147:68 *206:69 8.17328e-05
55 *147:72 *149:44 0
56 *147:72 *188:21 4.46759e-05
57 *147:72 *205:44 0
58 *147:72 *213:54 6.49713e-05
59 *147:76 *1419:A2 0.000137651
60 *147:76 *1469:A 0.000188927
61 *147:76 *179:148 0.000344292
62 *147:76 *207:26 0.000995836
63 *147:82 *188:59 0.000713633
64 *147:82 *188:65 0.000178419
65 *147:82 *204:10 0.000461371
66 *147:82 *204:24 8.60224e-05
67 *147:82 *206:16 5.92738e-07
68 *147:82 *208:108 0
69 *147:82 *226:71 0.000153784
70 *147:84 *170:8 4.75206e-05
71 *147:96 *153:10 0.000669789
72 *147:96 *168:70 2.80924e-06
73 *147:96 *170:8 1.59094e-05
74 *147:96 *180:70 7.81851e-05
75 *147:96 *187:22 0.000509309
76 *147:96 *187:34 0.000158248
77 *147:96 *202:6 5.3304e-05
78 *147:96 *202:57 0.000180224
79 *147:96 *215:51 3.53051e-05
80 *1377:C *147:16 0.000403826
81 *1410:A *147:6 0.000230604
82 *1411:C1 *1411:B1 5.50049e-05
83 *1411:C1 *147:18 4.20701e-05
84 *1411:C1 *147:35 0
85 *1440:C1 *1440:B2 5.3304e-05
86 *1506:RESET_B *1441:A1 0.000555851
87 *1507:RESET_B *1441:A1 0.000107381
88 *1507:RESET_B *147:96 0.000474039
89 *22:26 *1441:A1 6.66057e-05
90 *26:8 *147:16 0.000403554
91 *26:8 *147:18 0.000190036
92 *51:8 *147:72 0.000154389
93 *52:10 *147:35 2.90613e-05
94 *69:8 *147:76 0.00222456
95 *93:14 *147:72 0.000870787
96 *95:109 *147:72 0
97 *95:137 *147:72 0
98 *100:18 *147:35 0.000621874
99 *106:27 *147:6 0.000216897
100 *107:20 *147:66 0.000376595
101 *107:20 *147:68 0.000261951
102 *110:10 *147:84 9.65021e-05
103 *118:10 *147:35 0.000216833
104 *118:16 *147:10 0
105 *122:10 *147:16 0.000302018
*RES
1 *1410:X *147:6 39.3436 
2 *147:6 *147:10 22.54 
3 *147:10 *147:12 11.4136 
4 *147:12 *147:14 2.61 
5 *147:14 *147:16 45.5714 
6 *147:16 *147:18 8.59643 
7 *147:18 *1411:B1 38.6214 
8 *147:18 *147:35 48.5779 
9 *147:35 *1423:A 23 
10 *147:16 *1440:B2 41.0243 
11 *147:14 *147:57 28.5057 
12 *147:57 *1421:A4 23 
13 *147:12 *147:66 28.9614 
14 *147:66 *147:68 3.00357 
15 *147:68 *147:72 37.33 
16 *147:72 *147:76 41.825 
17 *147:76 *147:82 48.8086 
18 *147:82 *147:84 6.33857 
19 *147:84 *147:96 47.7107 
20 *147:96 *1441:A1 36.6507 
21 *147:84 *1442:B 23 
22 *147:76 *1419:A3 23 
23 *147:68 *1413:B 23 
24 *147:66 *1412:B 23 
25 *147:10 *1432:C 38 
*END

*D_NET *148 0.0192231
*CONN
*I *1414:B I *D sky130_fd_sc_hd__and3_1
*I *1412:X O *D sky130_fd_sc_hd__or2_1
*CAP
1 *1414:B 0.000138695
2 *1412:X 1.2297e-05
3 *148:16 0.00190496
4 *148:14 0.00487806
5 *148:10 0.00312409
6 *1414:B *225:10 0.000181131
7 *148:10 *205:10 9.85586e-06
8 *148:14 *206:49 0.00226232
9 *148:14 *208:55 9.21431e-05
10 *148:14 *210:89 5.92908e-05
11 *148:14 *219:14 0.00044495
12 *148:16 *167:12 2.69579e-05
13 *148:16 *193:14 0.00017688
14 *148:16 *208:14 9.33529e-06
15 *148:16 *210:29 8.16558e-05
16 *148:16 *216:40 0.000416313
17 *148:16 *216:99 0.000804287
18 *148:16 *218:26 0.00156258
19 *1414:A *148:16 5.56306e-05
20 *40:26 *148:14 0
21 *45:26 *148:14 0.000887543
22 *51:8 *148:10 2.26406e-05
23 *54:18 *148:16 0.00100956
24 *88:12 *148:16 6.51997e-06
25 *103:63 *148:16 0.000664214
26 *105:45 *148:16 0.000294882
27 *105:49 *148:16 7.4914e-05
28 *105:107 *148:16 2.13834e-05
*RES
1 *1412:X *148:10 46.3211 
2 *148:10 *148:14 16.9003 
3 *148:14 *148:16 45.7475 
4 *148:16 *1414:B 40.0507 
*END

*D_NET *149 0.029493
*CONN
*I *1416:B I *D sky130_fd_sc_hd__xor2_1
*I *1414:C I *D sky130_fd_sc_hd__and3_1
*I *1420:A2 I *D sky130_fd_sc_hd__o211a_1
*I *1413:Y O *D sky130_fd_sc_hd__nand2_2
*CAP
1 *1416:B 0
2 *1414:C 0
3 *1420:A2 0.000145765
4 *1413:Y 2.74236e-05
5 *149:54 0.000178088
6 *149:48 0.00128909
7 *149:46 0.001111
8 *149:44 0.00137987
9 *149:35 0.00218125
10 *149:31 0.00249847
11 *149:14 0.00235546
12 *149:12 0.0020359
13 *149:6 0.00155072
14 *1420:A2 *1420:A1 1.05441e-05
15 *1420:A2 *157:14 9.00985e-05
16 *1420:A2 *191:43 9.48701e-05
17 *149:6 *218:88 9.67842e-05
18 *149:12 *206:58 1.00493e-05
19 *149:12 *218:88 0.000126065
20 *149:12 *224:8 5.3304e-05
21 *149:14 *157:10 5.89176e-05
22 *149:14 *157:14 0.000808111
23 *149:14 *190:62 0.000132424
24 *149:14 *191:41 0.000202261
25 *149:14 *191:43 0.000375216
26 *149:14 *207:73 8.35537e-05
27 *149:31 *156:10 8.0251e-05
28 *149:31 *167:18 0.000348206
29 *149:31 *176:43 0.000866542
30 *149:35 *167:18 0.00275085
31 *149:44 *179:127 0.000816899
32 *149:44 *188:21 0.000464078
33 *149:44 *224:100 0.000115197
34 *149:48 *195:33 0.000230637
35 *149:48 *208:123 0.000397782
36 *149:54 *1527:A 8.57188e-05
37 *1337:A *149:31 0.000388739
38 *24:10 *149:14 0.000110922
39 *25:32 *149:54 7.70499e-06
40 *67:10 *149:14 0.00114576
41 *77:14 *149:14 0.000441293
42 *84:78 *149:14 0.00054021
43 *91:22 *149:31 5.56356e-05
44 *107:20 *149:6 4.6595e-05
45 *107:20 *149:12 0.000224983
46 *118:20 *149:48 0.00332279
47 *141:35 *149:14 0.000156945
48 *147:72 *149:44 0
*RES
1 *1413:Y *149:6 24.0979 
2 *149:6 *149:12 18.9771 
3 *149:12 *149:14 45.5714 
4 *149:14 *1420:A2 40.9621 
5 *149:14 *149:31 40.875 
6 *149:31 *149:35 45.9782 
7 *149:35 *1414:C 23 
8 *149:6 *149:44 42.9643 
9 *149:44 *149:46 15 
10 *149:46 *149:48 36.3536 
11 *149:48 *149:54 32.9621 
12 *149:54 *1416:B 23 
*END

*D_NET *150 0.0233888
*CONN
*I *1415:A I *D sky130_fd_sc_hd__clkbuf_1
*I *1414:X O *D sky130_fd_sc_hd__and3_1
*CAP
1 *1415:A 0
2 *1414:X 0.000298866
3 *150:38 0.0038806
4 *150:28 0.00738709
5 *150:12 0.00380535
6 *150:12 *176:39 2.72234e-05
7 *150:12 *218:34 0.000118481
8 *150:28 *169:26 0.00127422
9 *150:28 *177:20 0
10 *150:38 *162:24 0
11 *150:38 *163:24 0
12 *150:38 *198:16 0.000794431
13 *150:38 *204:24 0.00124984
14 *150:38 *210:106 4.95356e-05
15 *150:38 *219:14 0.000469968
16 *1404:B *150:38 0.000104603
17 *1495:RESET_B *150:38 4.50884e-05
18 *11:17 *150:28 0.00130914
19 *39:22 *150:28 0.000138228
20 *42:30 *150:28 0.000102364
21 *76:36 *150:38 4.95356e-05
22 *84:57 *150:28 7.57281e-06
23 *86:10 *150:28 0.000703883
24 *105:20 *150:12 0
25 *110:24 *150:38 2.2993e-05
26 *139:14 *150:38 0.0014187
27 *141:14 *150:28 0.000131068
*RES
1 *1414:X *150:12 48.0862 
2 *150:12 *150:28 42.0671 
3 *150:28 *150:38 41.3463 
4 *150:38 *1415:A 23 
*END

*D_NET *151 0.0127013
*CONN
*I *1417:B I *D sky130_fd_sc_hd__nor2_1
*I *1416:X O *D sky130_fd_sc_hd__xor2_1
*CAP
1 *1417:B 0
2 *1416:X 0.000948719
3 *151:16 0.000580413
4 *151:12 0.0018258
5 *151:6 0.00219411
6 *151:6 *207:44 5.56356e-05
7 *151:12 *163:24 0
8 *151:12 *164:10 0
9 *1509:RESET_B *151:6 0.00118322
10 *20:10 *151:12 0.00209462
11 *20:10 *151:16 0.000723568
12 *25:32 *151:6 0.00026306
13 *28:8 *151:12 0.000552352
14 *28:8 *151:16 0.00144484
15 *40:10 *151:12 8.4047e-05
16 *41:8 *151:6 0.000326391
17 *41:22 *151:12 0.00022183
18 *41:22 *151:16 0.000176717
19 *134:29 *151:12 0
20 *141:16 *151:16 2.60152e-05
*RES
1 *1416:X *151:6 46.9664 
2 *151:6 *151:12 49.3961 
3 *151:12 *151:16 35.0411 
4 *151:16 *1417:B 23 
*END

*D_NET *152 0.00736576
*CONN
*I *1420:A1 I *D sky130_fd_sc_hd__o211a_1
*I *1418:Y O *D sky130_fd_sc_hd__nand2_1
*CAP
1 *1420:A1 0.000237547
2 *1418:Y 0
3 *152:8 0.00260896
4 *152:4 0.00237141
5 *1420:A1 *157:14 0.000135011
6 *1420:A1 *191:43 9.8966e-05
7 *152:8 *1418:A 3.22879e-05
8 *152:8 *1418:B 0.000183128
9 *1420:A2 *1420:A1 1.05441e-05
10 *95:79 *1420:A1 0
11 *97:18 *1420:A1 0
12 *115:101 *152:8 0.000825112
13 *119:14 *152:8 0.000862786
*RES
1 *1418:Y *152:4 23 
2 *152:4 *152:8 49.4479 
3 *152:8 *1420:A1 42.7229 
*END

*D_NET *153 0.0213291
*CONN
*I *1420:B1 I *D sky130_fd_sc_hd__o211a_1
*I *1419:X O *D sky130_fd_sc_hd__a31o_1
*CAP
1 *1420:B1 0
2 *1419:X 0.0007222
3 *153:32 0.00125783
4 *153:16 0.00172615
5 *153:10 0.00298822
6 *153:8 0.0032421
7 *153:8 *1419:A2 0.000139352
8 *153:8 *1419:B1 0.00010776
9 *153:8 *207:26 1.76557e-05
10 *153:10 *182:53 0.000760003
11 *153:10 *183:81 1.88972e-05
12 *153:10 *183:83 0.000180535
13 *153:10 *187:22 0.000144925
14 *153:10 *187:34 9.63548e-05
15 *153:10 *190:103 0.000301852
16 *153:10 *199:48 5.30673e-05
17 *153:10 *202:10 0.000186695
18 *153:10 *202:42 0.000158343
19 *153:10 *208:18 0.00114175
20 *153:10 *208:41 4.75766e-05
21 *153:10 *208:108 0
22 *153:10 *210:56 0.000374424
23 *153:10 *220:40 0.000144446
24 *153:16 *1430:A 9.84794e-05
25 *153:32 *1385:A1 5.3304e-05
26 *153:32 *171:10 0.0010835
27 *153:32 *217:10 0.00107746
28 *1385:A2 *153:32 5.3304e-05
29 *23:8 *153:32 0.000782499
30 *47:26 *153:10 0
31 *47:28 *153:10 0
32 *49:12 *153:16 4.78336e-05
33 *88:50 *153:10 2.05503e-05
34 *88:64 *153:16 0.000641362
35 *103:47 *153:10 0.000363793
36 *105:14 *153:32 0.000241076
37 *115:28 *153:32 0.000101436
38 *115:76 *153:32 1.42218e-05
39 *128:10 *153:32 3.02038e-05
40 *131:24 *153:32 0.000101143
41 *134:35 *153:10 0
42 *134:73 *153:16 0.000101436
43 *134:94 *153:16 7.17698e-05
44 *137:18 *153:32 0.000744494
45 *144:12 *153:16 0.00122133
46 *147:96 *153:10 0.000669789
*RES
1 *1419:X *153:8 48.15 
2 *153:8 *153:10 55.0793 
3 *153:10 *153:16 43.9614 
4 *153:16 *153:32 48.8886 
5 *153:32 *1420:B1 23 
*END

*D_NET *154 0.0178091
*CONN
*I *1425:B I *D sky130_fd_sc_hd__and3_1
*I *1421:X O *D sky130_fd_sc_hd__a41o_1
*CAP
1 *1425:B 0
2 *1421:X 0.000361189
3 *154:14 0.00333814
4 *154:12 0.00333814
5 *154:10 0.00183001
6 *154:8 0.0021912
7 *154:8 *1421:A2 0.000528019
8 *154:10 *185:70 0
9 *154:10 *220:104 0.000294915
10 *154:14 *1352:B1_N 2.65942e-05
11 *154:14 *167:26 2.88149e-05
12 *154:14 *168:40 0.0001164
13 *154:14 *195:14 0.00162434
14 *1352:A2 *154:14 3.3577e-05
15 *79:10 *154:10 0
16 *106:31 *154:10 0
17 *115:28 *154:14 0.000701146
18 *115:76 *154:14 0.000769877
19 *115:95 *154:14 1.12672e-05
20 *117:26 *154:10 0.00261552
*RES
1 *1421:X *154:8 43.8621 
2 *154:8 *154:10 43.4586 
3 *154:10 *154:12 15 
4 *154:12 *154:14 46.3586 
5 *154:14 *1425:B 23 
*END

*D_NET *155 0.0353669
*CONN
*I *1432:D I *D sky130_fd_sc_hd__and4_1
*I *1439:B I *D sky130_fd_sc_hd__and2_2
*I *1423:B I *D sky130_fd_sc_hd__and2_1
*I *1422:X O *D sky130_fd_sc_hd__and4_2
*CAP
1 *1432:D 0
2 *1439:B 0.00067672
3 *1423:B 0.000409361
4 *1422:X 0.000238402
5 *155:76 0.00053304
6 *155:63 0.00193854
7 *155:49 0.00249729
8 *155:34 0.00181102
9 *155:26 0.0021535
10 *155:18 0.00382213
11 *155:12 0.00254307
12 *155:8 0.0014797
13 *1423:B *207:126 5.56279e-05
14 *1439:B *1379:A 0.00117765
15 *1439:B *168:8 2.98648e-05
16 *155:8 *185:92 1.59094e-05
17 *155:8 *209:89 2.45549e-06
18 *155:8 *212:36 9.55893e-06
19 *155:18 *203:12 0.000187062
20 *155:18 *209:35 4.15888e-05
21 *155:18 *212:10 0.000107232
22 *155:18 *214:28 9.41704e-05
23 *155:18 *222:14 5.60862e-05
24 *155:26 *156:10 0
25 *155:26 *181:124 3.76157e-05
26 *155:26 *209:35 1.07568e-05
27 *155:26 *212:10 0.000935461
28 *155:34 *156:10 0
29 *155:34 *207:122 0.000348277
30 *155:34 *212:10 0.000484739
31 *155:49 *222:10 0.000184816
32 *155:49 *222:38 0.000295345
33 *155:49 *226:16 0.000467786
34 *155:63 *172:22 0.0010353
35 *155:63 *183:68 0.000103948
36 *155:63 *183:77 8.49477e-05
37 *155:63 *210:56 2.07444e-05
38 *1383:C *155:63 0.000120646
39 *1502:RESET_B *1439:B 2.62876e-05
40 *1502:RESET_B *155:63 5.12055e-06
41 *26:8 *155:12 0.000242849
42 *26:8 *155:76 0.000347659
43 *37:30 *155:12 0.0012776
44 *42:10 *155:49 5.3304e-05
45 *42:16 *155:26 0.00010602
46 *43:24 *155:49 0.000571614
47 *44:20 *155:63 8.35934e-05
48 *57:14 *155:26 0.000135037
49 *60:8 *1439:B 0.000303724
50 *100:18 *1423:B 0.000569507
51 *103:34 *1439:B 0.000552499
52 *105:96 *155:63 0.000139686
53 *115:20 *155:34 0.000295472
54 *118:16 *155:76 0.000124709
55 *124:30 *155:63 0.000514476
56 *125:24 *155:63 0.000120432
57 *127:8 *155:63 0.000188934
58 *138:6 *155:18 0.000927176
59 *142:34 *155:18 0.000842829
60 *143:30 *155:34 0.000923927
61 *147:10 *155:76 1.13812e-05
62 *147:12 *155:76 0.000842353
63 *147:14 *155:76 0.000195248
64 *147:16 *155:12 0.00177949
65 *147:16 *155:76 0.000175612
*RES
1 *1422:X *155:8 40.5271 
2 *155:8 *155:12 39.0907 
3 *155:12 *155:18 47.19 
4 *155:18 *155:26 44.7486 
5 *155:26 *155:34 44.3314 
6 *155:34 *1423:B 34.1029 
7 *155:18 *155:49 49.6682 
8 *155:49 *155:63 46.4464 
9 *155:63 *1439:B 39.7164 
10 *155:8 *155:76 31.3436 
11 *155:76 *1432:D 23 
*END

*D_NET *156 0.021365
*CONN
*I *1424:A I *D sky130_fd_sc_hd__inv_2
*I *1427:B I *D sky130_fd_sc_hd__or2_1
*I *1428:B I *D sky130_fd_sc_hd__nand2_1
*I *1423:X O *D sky130_fd_sc_hd__and2_1
*CAP
1 *1424:A 0
2 *1427:B 0
3 *1428:B 3.12658e-05
4 *1423:X 0.000739672
5 *156:56 0.000599504
6 *156:39 0.00100416
7 *156:31 0.00306688
8 *156:29 0.00165193
9 *156:10 0.00203517
10 *156:6 0.00255486
11 *1428:B *165:43 6.17437e-06
12 *1428:B *165:51 1.31253e-05
13 *1428:B *193:22 5.64134e-05
14 *156:10 *168:26 0
15 *156:10 *181:44 2.46399e-05
16 *156:10 *189:28 0
17 *156:10 *212:10 0
18 *156:29 *181:124 0.000161748
19 *156:31 *180:58 0
20 *156:31 *182:12 2.26497e-05
21 *156:31 *182:66 0.00055995
22 *156:31 *189:18 9.9699e-06
23 *156:31 *189:26 0.000994723
24 *156:31 *211:35 0
25 *156:31 *212:23 0
26 *156:39 *199:99 8.06804e-06
27 *156:39 *203:31 0.00016124
28 *156:39 *211:27 0.000765622
29 *156:56 *1503:CLK 0.000131847
30 *156:56 *186:125 0.000180218
31 *156:56 *199:27 2.93431e-05
32 *156:56 *199:42 0.000132548
33 *156:56 *199:99 0.000469804
34 *156:56 *210:89 8.8085e-05
35 *156:56 *218:82 0.000342161
36 *1339:B1 *156:31 0.000444038
37 *1503:D *156:31 0
38 *1503:D *156:56 0
39 *48:16 *156:39 0.000158999
40 *49:12 *156:29 9.66585e-05
41 *50:16 *156:31 4.79458e-06
42 *82:12 *156:10 0.000135616
43 *82:12 *156:29 2.4508e-05
44 *82:18 *156:29 0.000168556
45 *82:18 *156:31 0.00155209
46 *84:37 *156:31 0.000152296
47 *84:37 *156:39 9.93864e-05
48 *84:37 *156:56 5.09373e-05
49 *88:64 *156:29 9.41704e-05
50 *91:22 *156:10 0.00121382
51 *100:18 *156:6 0.00114281
52 *103:8 *156:31 0
53 *108:18 *156:31 0
54 *128:10 *156:10 0
55 *143:14 *156:10 0.000104277
56 *149:31 *156:10 8.0251e-05
57 *155:26 *156:10 0
58 *155:34 *156:10 0
*RES
1 *1423:X *156:6 35.5321 
2 *156:6 *156:10 47.8943 
3 *156:10 *1428:B 38.6577 
4 *156:10 *156:29 34.6814 
5 *156:29 *156:31 33.2464 
6 *156:31 *156:39 44.79 
7 *156:39 *1427:B 38 
8 *156:31 *156:56 28.63 
9 *156:56 *1424:A 23 
*END

*D_NET *157 0.0137232
*CONN
*I *1425:C I *D sky130_fd_sc_hd__and3_1
*I *1424:Y O *D sky130_fd_sc_hd__inv_2
*CAP
1 *1425:C 1.83048e-05
2 *1424:Y 0
3 *157:20 0.00146724
4 *157:14 0.00281487
5 *157:10 0.00209954
6 *157:6 0.000733605
7 *1425:C *191:82 1.95448e-05
8 *157:10 *182:72 1.84049e-05
9 *157:10 *224:53 3.67236e-05
10 *157:14 *173:10 0.00149557
11 *157:14 *224:53 9.87896e-07
12 *157:20 *179:24 8.62783e-05
13 *157:20 *217:18 0.000200626
14 *157:20 *217:41 0.000838969
15 *1420:A1 *157:14 0.000135011
16 *1420:A2 *157:14 9.00985e-05
17 *1503:RESET_B *157:10 0.000133516
18 *24:10 *157:14 0.000113153
19 *29:12 *157:14 4.02673e-05
20 *61:16 *157:20 8.4047e-05
21 *77:14 *157:10 0.00131874
22 *81:14 *157:10 7.30385e-06
23 *81:14 *157:14 0
24 *88:74 *157:14 5.52162e-06
25 *97:12 *157:14 0
26 *97:18 *157:14 0
27 *107:34 *157:10 0.00101461
28 *131:24 *157:10 8.32598e-05
29 *149:14 *157:10 5.89176e-05
30 *149:14 *157:14 0.000808111
*RES
1 *1424:Y *157:6 38 
2 *157:6 *157:10 21.4911 
3 *157:10 *157:14 46.1854 
4 *157:14 *157:20 35.4036 
5 *157:20 *1425:C 38.2279 
*END

*D_NET *158 0.0130452
*CONN
*I *1426:A I *D sky130_fd_sc_hd__buf_1
*I *1425:X O *D sky130_fd_sc_hd__and3_1
*CAP
1 *1426:A 0
2 *1425:X 0
3 *158:18 0.00131943
4 *158:10 0.00272187
5 *158:6 0.00140244
6 *158:10 *181:58 6.15681e-05
7 *158:10 *191:30 0.000327324
8 *158:10 *206:24 0.000582542
9 *158:10 *206:26 0.00228662
10 *158:10 *226:16 0.000327716
11 *158:18 *182:72 0.000427831
12 *158:18 *208:55 0.000147974
13 *158:18 *226:39 0.000112756
14 *40:26 *158:18 6.75548e-06
15 *61:16 *158:10 0.00124001
16 *69:10 *158:10 0.000431888
17 *108:18 *158:18 0.000520287
18 *110:24 *158:10 0.000127191
19 *117:20 *158:18 0.000370391
20 *120:46 *158:18 2.11066e-05
21 *120:62 *158:18 0.000553157
22 *141:14 *158:18 5.63225e-05
*RES
1 *1425:X *158:6 38 
2 *158:6 *158:10 48.1132 
3 *158:10 *158:18 31.9308 
4 *158:18 *1426:A 23 
*END

*D_NET *159 0.0120226
*CONN
*I *1429:B I *D sky130_fd_sc_hd__and3_1
*I *1427:X O *D sky130_fd_sc_hd__or2_1
*CAP
1 *1429:B 0
2 *1427:X 0
3 *159:30 0.000953871
4 *159:22 0.00156848
5 *159:14 0.0014634
6 *159:6 0.000848796
7 *159:14 *190:58 6.71859e-05
8 *159:14 *190:103 0.000486051
9 *159:14 *208:41 0.000210238
10 *159:14 *208:108 9.86551e-06
11 *159:14 *221:37 5.3304e-05
12 *159:22 *221:10 3.33144e-05
13 *159:22 *221:12 0.000772542
14 *159:22 *222:8 0.000221715
15 *159:22 *222:10 0.000184825
16 *159:22 *222:38 0.000611751
17 *159:30 *161:8 0.000607483
18 *159:30 *194:24 0.00064678
19 *159:30 *202:63 9.67908e-05
20 *159:30 *225:29 4.98398e-05
21 *48:12 *159:30 0.000268915
22 *57:14 *159:30 2.20564e-05
23 *68:16 *159:30 0.000852432
24 *68:24 *159:14 0.00109197
25 *88:60 *159:30 0.00026506
26 *117:10 *159:14 0.000121073
27 *135:10 *159:30 0.000514848
*RES
1 *1427:X *159:6 38 
2 *159:6 *159:14 48.7671 
3 *159:14 *159:22 43.9407 
4 *159:22 *159:30 42.6536 
5 *159:30 *1429:B 23 
*END

*D_NET *160 0.0163883
*CONN
*I *1433:A2 I *D sky130_fd_sc_hd__a211oi_1
*I *1429:C I *D sky130_fd_sc_hd__and3_1
*I *1428:Y O *D sky130_fd_sc_hd__nand2_1
*CAP
1 *1433:A2 0
2 *1429:C 0.00035088
3 *1428:Y 0.00190149
4 *160:37 0.00143974
5 *160:33 0.00256377
6 *160:8 0.00147491
7 *160:6 0.00190149
8 *1429:C *176:39 8.46059e-05
9 *160:6 *193:22 0.00228881
10 *160:33 *183:68 0
11 *160:33 *187:58 6.41332e-05
12 *160:33 *190:48 9.41704e-05
13 *160:37 *162:24 0.000100211
14 *160:37 *182:53 0
15 *160:37 *187:44 0
16 *160:37 *218:62 0
17 *1501:RESET_B *160:33 0
18 *29:32 *160:37 0
19 *40:26 *160:37 0.000172255
20 *54:28 *160:33 0
21 *86:10 *160:33 0.000225211
22 *86:10 *160:37 0.00221254
23 *86:22 *160:33 0.000422273
24 *86:34 *1429:C 0.000357773
25 *86:34 *160:33 0.000334491
26 *95:24 *160:33 1.21052e-05
27 *95:36 *160:37 0
28 *95:47 *160:37 0
29 *103:63 *1429:C 0.000108947
30 *103:63 *160:33 0
31 *109:28 *160:37 0
32 *127:12 *1429:C 5.1986e-06
33 *127:12 *160:33 0.00010343
34 *135:10 *1429:C 0.000169905
*RES
1 *1428:Y *160:6 48.8721 
2 *160:6 *160:8 15 
3 *160:8 *1429:C 45.3121 
4 *160:8 *160:33 36.0871 
5 *160:33 *160:37 45.7814 
6 *160:37 *1433:A2 38 
*END

*D_NET *161 0.0035353
*CONN
*I *1430:A I *D sky130_fd_sc_hd__clkbuf_1
*I *1429:X O *D sky130_fd_sc_hd__and3_1
*CAP
1 *1430:A 0.000420341
2 *1429:X 0.000486639
3 *161:8 0.00090698
4 *1430:A *194:20 8.36198e-05
5 *1430:A *208:18 0.000210213
6 *1430:A *210:52 0.000100159
7 *1430:A *220:20 0.000333898
8 *134:73 *1430:A 0.000220592
9 *144:12 *1430:A 6.69016e-05
10 *153:16 *1430:A 9.84794e-05
11 *159:30 *161:8 0.000607483
*RES
1 *1429:X *161:8 44.815 
2 *161:8 *1430:A 48.4193 
*END

*D_NET *162 0.0227027
*CONN
*I *1433:A1 I *D sky130_fd_sc_hd__a211oi_1
*I *1431:Y O *D sky130_fd_sc_hd__inv_2
*CAP
1 *1433:A1 0
2 *1431:Y 2.11219e-05
3 *162:24 0.0089
4 *162:10 0.00892112
5 *162:24 *163:24 0.000109226
6 *162:24 *196:36 0
7 *162:24 *221:10 0.000100681
8 *162:24 *221:12 0.000146259
9 *1495:RESET_B *162:24 1.13839e-05
10 *23:20 *162:24 0.000110915
11 *38:14 *162:24 0.000121604
12 *39:22 *162:24 0
13 *48:16 *162:24 0.000241991
14 *70:24 *162:24 6.08051e-05
15 *104:16 *162:24 0.000424997
16 *110:24 *162:24 0.00310276
17 *113:16 *162:24 6.49646e-05
18 *126:28 *162:24 0.000264705
19 *131:24 *162:24 0
20 *150:38 *162:24 0
21 *160:37 *162:24 0.000100211
*RES
1 *1431:Y *162:10 46.3211 
2 *162:10 *162:24 44.802 
3 *162:24 *1433:A1 38 
*END

*D_NET *163 0.0196769
*CONN
*I *1435:B I *D sky130_fd_sc_hd__nand2_1
*I *1433:B1 I *D sky130_fd_sc_hd__a211oi_1
*I *1434:B I *D sky130_fd_sc_hd__or2_1
*I *1432:X O *D sky130_fd_sc_hd__and4_1
*CAP
1 *1435:B 0
2 *1433:B1 0
3 *1434:B 0
4 *1432:X 0.000879981
5 *163:48 0.000450146
6 *163:24 0.0027955
7 *163:12 0.00597796
8 *163:6 0.00451258
9 *163:6 *1432:A 0.000889097
10 *163:12 *1432:A 0.00146659
11 *163:12 *207:16 0.000352568
12 *163:48 *1435:A 3.7681e-05
13 *163:48 *165:8 9.41704e-05
14 *163:48 *199:107 6.1789e-05
15 *163:48 *210:106 3.07875e-05
16 *1433:C1 *163:12 0.000665704
17 *1510:RESET_B *163:48 0.000198
18 *33:8 *163:12 0.000137361
19 *41:22 *163:24 0
20 *70:24 *163:12 0.000189438
21 *70:24 *163:24 2.11157e-05
22 *76:36 *163:48 0
23 *77:10 *163:12 0.000298178
24 *84:57 *163:24 0
25 *95:47 *163:24 4.36401e-06
26 *96:19 *163:48 0.00050465
27 *150:38 *163:24 0
28 *151:12 *163:24 0
29 *162:24 *163:24 0.000109226
*RES
1 *1432:X *163:6 35.5321 
2 *163:6 *163:12 47.0007 
3 *163:12 *163:24 37.1164 
4 *163:24 *1434:B 38 
5 *163:12 *1433:B1 23 
6 *163:6 *163:48 39.7564 
7 *163:48 *1435:B 23 
*END

*D_NET *164 0.0102028
*CONN
*I *1436:B I *D sky130_fd_sc_hd__and3_1
*I *1434:X O *D sky130_fd_sc_hd__or2_1
*CAP
1 *1436:B 0
2 *1434:X 0.000201785
3 *164:18 0.000947585
4 *164:10 0.00322278
5 *164:8 0.00247698
6 *164:8 *1434:A 3.25284e-05
7 *164:8 *191:6 7.04466e-06
8 *164:10 *172:10 0.00100515
9 *164:10 *203:47 2.67179e-05
10 *164:10 *205:58 0
11 *164:10 *218:10 0
12 *164:18 *234:DIODE 0.000191141
13 *164:18 *165:51 4.5925e-05
14 *164:18 *166:8 0.000726271
15 *20:8 *164:18 0.000449157
16 *28:8 *164:10 0
17 *47:60 *164:18 0.000620623
18 *105:119 *164:10 0.000242983
19 *124:14 *164:10 6.10551e-06
20 *136:8 *164:10 0
21 *141:16 *164:10 0
22 *151:12 *164:10 0
*RES
1 *1434:X *164:8 40.5271 
2 *164:8 *164:10 46.6279 
3 *164:10 *164:18 36.2736 
4 *164:18 *1436:B 23 
*END

*D_NET *165 0.0249574
*CONN
*I *1436:C I *D sky130_fd_sc_hd__and3_1
*I *234:DIODE I *D sky130_fd_sc_hd__diode_2
*I *1440:A2 I *D sky130_fd_sc_hd__a221oi_1
*I *1435:Y O *D sky130_fd_sc_hd__nand2_1
*CAP
1 *1436:C 4.31553e-05
2 *234:DIODE 0.000117892
3 *1440:A2 0
4 *1435:Y 0.000358881
5 *165:51 0.00259503
6 *165:43 0.00321292
7 *165:32 0.000633615
8 *165:26 0.00158043
9 *165:18 0.00195376
10 *165:8 0.00214477
11 *165:8 *210:106 0.000185942
12 *165:18 *200:18 0.00113323
13 *165:18 *203:77 0.0001619
14 *165:18 *204:47 0
15 *165:18 *209:59 3.78393e-05
16 *165:18 *219:44 0
17 *165:32 *1347:C 0
18 *165:32 *167:26 0.00070437
19 *165:32 *168:40 0.000702675
20 *165:32 *203:77 0
21 *165:32 *204:47 3.70292e-05
22 *165:43 *1486:A 2.72126e-05
23 *165:43 *181:141 0.000892023
24 *165:43 *193:22 9.78729e-06
25 *165:51 *1428:A 1.46286e-05
26 *165:51 *168:26 0.000256667
27 *165:51 *193:20 7.42224e-06
28 *165:51 *193:22 2.21004e-05
29 *1402:A *165:26 0.000353894
30 *1428:B *165:43 6.17437e-06
31 *1428:B *165:51 1.31253e-05
32 *1510:RESET_B *165:18 0
33 *21:8 *165:32 0.000114098
34 *37:22 *165:18 0
35 *49:12 *165:26 0.000356222
36 *66:8 *165:18 1.79572e-05
37 *71:6 *165:43 0.00173664
38 *76:18 *165:18 3.78848e-05
39 *76:28 *165:18 0.000260838
40 *76:36 *165:18 0.00124396
41 *96:12 *165:26 0.000160125
42 *96:12 *165:32 0.000238759
43 *97:61 *165:51 0.00199941
44 *100:14 *165:32 0.000121401
45 *124:30 *165:18 0.000112317
46 *129:10 *165:26 0.000152171
47 *129:10 *165:32 0.000867928
48 *163:48 *165:8 9.41704e-05
49 *164:18 *234:DIODE 0.000191141
50 *164:18 *165:51 4.5925e-05
*RES
1 *1435:Y *165:8 42.9093 
2 *165:8 *165:18 39.3571 
3 *165:18 *165:26 36.2143 
4 *165:26 *165:32 34.8857 
5 *165:32 *1440:A2 23 
6 *165:26 *165:43 36.1286 
7 *165:43 *165:51 33.2879 
8 *165:51 *234:DIODE 25.4443 
9 *165:51 *1436:C 23.9736 
*END

*D_NET *166 0.0112485
*CONN
*I *1437:A I *D sky130_fd_sc_hd__clkbuf_1
*I *1436:X O *D sky130_fd_sc_hd__and3_1
*CAP
1 *1437:A 0
2 *1436:X 0.000609573
3 *166:10 0.00188231
4 *166:8 0.00249188
5 *166:10 *176:12 0.00111579
6 *166:10 *176:27 0.000581138
7 *166:10 *191:14 0.000287824
8 *166:10 *196:10 0
9 *166:10 *196:16 0.00124795
10 *166:10 *218:20 2.26385e-05
11 *22:26 *166:10 9.01417e-05
12 *32:18 *166:10 0.00126017
13 *34:8 *166:10 0.000171991
14 *41:22 *166:10 0
15 *94:10 *166:10 0
16 *103:34 *166:10 0.000221559
17 *105:138 *166:10 7.75329e-06
18 *129:71 *166:10 0.000180084
19 *146:20 *166:10 0.000351431
20 *164:18 *166:8 0.000726271
*RES
1 *1436:X *166:8 46.2443 
2 *166:8 *166:10 55.4314 
3 *166:10 *1437:A 38 
*END

*D_NET *167 0.0166312
*CONN
*I *1440:A1 I *D sky130_fd_sc_hd__a221oi_1
*I *1438:Y O *D sky130_fd_sc_hd__inv_2
*CAP
1 *1440:A1 0
2 *1438:Y 0.00102867
3 *167:26 0.00050446
4 *167:18 0.00189169
5 *167:12 0.00145027
6 *167:6 0.00109171
7 *167:6 *1438:A 7.27479e-05
8 *167:6 *176:39 0.000980927
9 *167:18 *176:43 0.000566497
10 *167:18 *225:10 6.68822e-05
11 *167:26 *168:40 0.000252912
12 *167:26 *189:59 0.00121108
13 *1337:A *167:18 0.000388739
14 *1352:A2 *167:26 9.67842e-05
15 *1414:A *167:12 1.14452e-05
16 *1504:RESET_B *167:18 0.00132878
17 *81:8 *167:18 0.000517237
18 *88:74 *167:18 0.000517593
19 *91:22 *167:18 0.000137368
20 *95:24 *167:12 0.000107294
21 *104:16 *167:26 1.40183e-05
22 *104:37 *167:26 0.000135644
23 *115:95 *167:26 0.000139346
24 *138:10 *167:26 0.000259881
25 *148:16 *167:12 2.69579e-05
26 *149:31 *167:18 0.000348206
27 *149:35 *167:18 0.00275085
28 *154:14 *167:26 2.88149e-05
29 *165:32 *167:26 0.00070437
*RES
1 *1438:Y *167:6 36.9614 
2 *167:6 *167:12 31.5536 
3 *167:12 *167:18 45.095 
4 *167:18 *167:26 49.0571 
5 *167:26 *1440:A1 23 
*END

*D_NET *168 0.0310887
*CONN
*I *1442:C I *D sky130_fd_sc_hd__and3_2
*I *1441:A2 I *D sky130_fd_sc_hd__a21oi_2
*I *1440:B1 I *D sky130_fd_sc_hd__a221oi_1
*I *1439:X O *D sky130_fd_sc_hd__and2_2
*CAP
1 *1442:C 0
2 *1441:A2 2.32701e-05
3 *1440:B1 0
4 *1439:X 0.000428474
5 *168:70 0.00203838
6 *168:55 0.00217488
7 *168:51 0.000867906
8 *168:40 0.000642511
9 *168:32 0.00208818
10 *168:26 0.0025084
11 *168:20 0.00320884
12 *168:8 0.00332926
13 *1441:A2 *1506:CLK 5.3304e-05
14 *168:8 *1379:A 1.61361e-05
15 *168:20 *169:26 6.38732e-05
16 *168:20 *187:66 0
17 *168:20 *220:40 4.96811e-06
18 *168:26 *1428:A 0.000186606
19 *168:26 *181:44 9.05662e-05
20 *168:26 *193:22 0.00088671
21 *168:26 *220:20 0.000175903
22 *168:32 *1408:A 1.21972e-05
23 *168:32 *179:33 1.27518e-05
24 *168:32 *181:44 3.35966e-05
25 *168:40 *1452:A1 6.16531e-05
26 *168:40 *189:59 0.000155266
27 *168:40 *195:14 0.000995668
28 *168:51 *177:20 5.50106e-05
29 *168:51 *196:10 1.21972e-05
30 *168:51 *224:24 0.000474332
31 *168:70 *170:8 2.64616e-05
32 *168:70 *215:51 0.000348905
33 *1439:B *168:8 2.98648e-05
34 *1440:B2 *168:40 1.79739e-05
35 *1506:RESET_B *1441:A2 5.3304e-05
36 *32:10 *168:20 0.000625087
37 *32:10 *168:51 0.00130759
38 *51:8 *168:40 0.000539434
39 *82:12 *168:32 3.95707e-06
40 *86:34 *168:20 0.00012589
41 *93:18 *168:40 5.95645e-05
42 *94:10 *168:55 0.000205648
43 *94:10 *168:70 0.000536253
44 *95:24 *168:20 5.89766e-06
45 *97:10 *168:32 8.06804e-06
46 *97:61 *168:26 0.00157291
47 *98:12 *168:51 0.000372517
48 *98:14 *168:20 0.000627464
49 *98:14 *168:51 0.000522119
50 *103:34 *168:8 0.000197649
51 *103:63 *168:20 5.40218e-05
52 *104:41 *168:40 0.000208221
53 *105:128 *168:55 0.000205648
54 *105:128 *168:70 0.000544156
55 *127:12 *168:20 7.41575e-05
56 *145:6 *168:32 0.000726277
57 *146:20 *168:51 0.000157373
58 *147:96 *168:70 2.80924e-06
59 *154:14 *168:40 0.0001164
60 *156:10 *168:26 0
61 *165:32 *168:40 0.000702675
62 *165:51 *168:26 0.000256667
63 *167:26 *168:40 0.000252912
*RES
1 *1439:X *168:8 44.3386 
2 *168:8 *168:20 45.1732 
3 *168:20 *168:26 42.5086 
4 *168:26 *168:32 47.7729 
5 *168:32 *168:40 36.5221 
6 *168:40 *1440:B1 23 
7 *168:8 *168:51 38.1379 
8 *168:51 *168:55 17.9621 
9 *168:55 *1441:A2 38.6214 
10 *168:55 *168:70 43.6479 
11 *168:70 *1442:C 23 
*END

*D_NET *169 0.0241514
*CONN
*I *1443:B I *D sky130_fd_sc_hd__nor3_1
*I *1441:Y O *D sky130_fd_sc_hd__a21oi_2
*CAP
1 *1443:B 0
2 *1441:Y 0.00020922
3 *169:34 0.00497026
4 *169:26 0.00857983
5 *169:8 0.00381879
6 *169:8 *184:12 8.32402e-05
7 *169:8 *184:27 1.14987e-05
8 *169:8 *215:35 4.69174e-05
9 *169:26 *187:58 0.000166413
10 *169:34 *174:22 0.00132864
11 *169:34 *179:54 7.57281e-06
12 *169:34 *195:33 4.96824e-05
13 *29:12 *169:34 3.12916e-05
14 *29:32 *169:34 0.000351754
15 *43:10 *169:34 2.26406e-05
16 *60:18 *169:26 0
17 *86:34 *169:26 0.000267789
18 *86:34 *169:34 0.00182645
19 *87:22 *169:34 0.00049699
20 *89:14 *169:8 0.00040349
21 *95:24 *169:26 3.51671e-05
22 *105:20 *169:34 0
23 *108:18 *169:26 3.82803e-05
24 *125:18 *169:8 2.11066e-05
25 *139:26 *169:34 4.62763e-05
26 *146:20 *169:26 0
27 *150:28 *169:26 0.00127422
28 *168:20 *169:26 6.38732e-05
*RES
1 *1441:Y *169:8 43.6032 
2 *169:8 *169:26 47.9501 
3 *169:26 *169:34 36.4717 
4 *169:34 *1443:B 23 
*END

*D_NET *170 0.0379667
*CONN
*I *1448:B1 I *D sky130_fd_sc_hd__a21o_1
*I *1443:C I *D sky130_fd_sc_hd__nor3_1
*I *1444:B I *D sky130_fd_sc_hd__or2_1
*I *1445:B I *D sky130_fd_sc_hd__nand2_1
*I *1442:X O *D sky130_fd_sc_hd__and3_2
*CAP
1 *1448:B1 3.29706e-05
2 *1443:C 7.47002e-05
3 *1444:B 1.61444e-05
4 *1445:B 0.000783907
5 *1442:X 0.000105364
6 *170:74 0.000853229
7 *170:70 0.00254902
8 *170:64 0.00269234
9 *170:58 0.00223306
10 *170:30 0.00135387
11 *170:26 0.00113103
12 *170:16 0.00211218
13 *170:14 0.00353912
14 *170:8 0.000733048
15 *1443:C *181:187 0.00026626
16 *1444:B *216:54 3.3123e-05
17 *1445:B *1519:CLK 0.000237027
18 *1445:B *172:8 0.00010067
19 *1445:B *178:22 0.00067986
20 *1445:B *210:10 4.58484e-05
21 *1445:B *210:16 0.000364803
22 *1448:B1 *174:8 9.66668e-05
23 *170:14 *187:22 3.88538e-05
24 *170:14 *199:48 0.000488651
25 *170:16 *183:83 1.07299e-05
26 *170:16 *183:91 0.000278645
27 *170:16 *187:72 0.000621348
28 *170:16 *188:90 0.00280475
29 *170:16 *199:48 0.00193811
30 *170:26 *171:6 1.21972e-05
31 *170:26 *216:48 3.3577e-05
32 *170:30 *210:29 6.80547e-05
33 *170:30 *215:8 0
34 *170:30 *216:54 0.000208867
35 *170:58 *180:58 0.000113573
36 *170:58 *190:103 0.000261458
37 *170:58 *216:24 0.000243002
38 *170:58 *216:32 8.58827e-05
39 *170:58 *221:8 0.000555167
40 *170:64 *1525:CLK 6.55954e-05
41 *170:64 *180:58 6.63159e-06
42 *170:64 *185:12 0.000537705
43 *170:70 *188:8 7.53384e-06
44 *170:74 *198:18 9.76855e-06
45 *1377:A *1448:B1 9.66668e-05
46 *1519:RESET_B *1445:B 0.000128865
47 *1525:RESET_B *170:58 5.99316e-05
48 *21:20 *170:74 0
49 *39:22 *170:16 0.000191591
50 *47:28 *170:14 0.000951547
51 *47:28 *170:16 0.000180096
52 *47:134 *1443:C 0.000264564
53 *51:8 *170:64 0.000160125
54 *51:8 *170:70 0.000157245
55 *58:10 *170:74 0.000404986
56 *66:14 *170:70 0.000902205
57 *74:16 *170:74 0.00143537
58 *76:18 *170:70 0.000135037
59 *82:18 *170:58 0.000193145
60 *93:14 *170:64 0.000135953
61 *97:92 *170:74 0.000119287
62 *104:41 *170:70 0.000161605
63 *105:30 *1444:B 2.95125e-05
64 *105:30 *170:30 0.00019736
65 *109:40 *170:74 0.00185078
66 *112:10 *170:30 3.6608e-05
67 *117:24 *170:64 0.000263946
68 *128:14 *170:26 0.000568345
69 *139:41 *170:26 0.000827668
70 *147:84 *170:8 4.75206e-05
71 *147:96 *170:8 1.59094e-05
72 *168:70 *170:8 2.64616e-05
*RES
1 *1442:X *170:8 40.0507 
2 *170:8 *170:14 15.3493 
3 *170:14 *170:16 44.8671 
4 *170:16 *170:26 44.6036 
5 *170:26 *170:30 26.0614 
6 *170:30 *1445:B 47.4636 
7 *170:26 *1444:B 38.8493 
8 *170:14 *170:58 39.505 
9 *170:58 *170:64 28.3607 
10 *170:64 *170:70 44.5593 
11 *170:70 *170:74 43.6686 
12 *170:74 *1443:C 41.0036 
13 *170:64 *1448:B1 39.0979 
*END

*D_NET *171 0.0121979
*CONN
*I *1446:B I *D sky130_fd_sc_hd__and3_1
*I *1444:X O *D sky130_fd_sc_hd__or2_1
*CAP
1 *1446:B 0.00018575
2 *1444:X 0.00157113
3 *171:10 0.00144063
4 *171:6 0.002826
5 *171:10 *174:30 0.000110308
6 *171:10 *189:32 0
7 *171:10 *191:82 0.000332566
8 *171:10 *191:93 5.33213e-05
9 *171:10 *203:27 0.000329218
10 *171:10 *217:10 0.000246693
11 *44:12 *1446:B 0.000222948
12 *85:20 *171:10 0
13 *87:22 *171:10 0.0017217
14 *128:14 *171:6 0.00206195
15 *153:32 *171:10 0.0010835
16 *170:26 *171:6 1.21972e-05
*RES
1 *1444:X *171:6 46.49 
2 *171:6 *171:10 47.19 
3 *171:10 *1446:B 40.5271 
*END

*D_NET *172 0.0174148
*CONN
*I *1446:C I *D sky130_fd_sc_hd__and3_1
*I *1445:Y O *D sky130_fd_sc_hd__nand2_1
*CAP
1 *1446:C 0
2 *1445:Y 0.000198941
3 *172:22 0.00294921
4 *172:10 0.00509029
5 *172:8 0.00234002
6 *172:10 *216:60 2.99277e-05
7 *172:10 *219:16 0
8 *172:22 *223:25 2.99898e-05
9 *1445:B *172:8 0.00010067
10 *78:10 *172:22 6.85548e-05
11 *85:20 *172:22 8.34222e-05
12 *95:8 *172:10 0.00021128
13 *103:24 *172:22 0.00134239
14 *103:34 *172:22 0.00198679
15 *115:6 *172:22 6.04112e-05
16 *124:14 *172:22 2.22828e-05
17 *124:30 *172:22 0.000860114
18 *136:8 *172:10 0
19 *141:16 *172:10 0
20 *155:63 *172:22 0.0010353
21 *164:10 *172:10 0.00100515
*RES
1 *1445:Y *172:8 41.0036 
2 *172:8 *172:10 43.9868 
3 *172:10 *172:22 41.2864 
4 *172:22 *1446:C 23 
*END

*D_NET *173 0.00899786
*CONN
*I *1447:A I *D sky130_fd_sc_hd__clkbuf_1
*I *1446:X O *D sky130_fd_sc_hd__and3_1
*CAP
1 *1447:A 0.000871773
2 *1446:X 0.000848081
3 *173:10 0.00170148
4 *173:6 0.00167779
5 *1447:A *176:43 8.06804e-06
6 *173:10 *174:22 0.000125896
7 *44:12 *173:6 0.00107699
8 *81:14 *173:10 0.000199009
9 *88:74 *1447:A 0.000640203
10 *88:74 *173:10 0.000352987
11 *157:14 *173:10 0.00149557
*RES
1 *1446:X *173:6 35.0557 
2 *173:6 *173:10 35.9214 
3 *173:10 *1447:A 49.4757 
*END

*D_NET *174 0.0198528
*CONN
*I *1449:C1 I *D sky130_fd_sc_hd__o211a_1
*I *1448:X O *D sky130_fd_sc_hd__a21o_1
*CAP
1 *1449:C1 0
2 *1448:X 0.000276296
3 *174:44 0.000142459
4 *174:38 0.000565725
5 *174:30 0.00131633
6 *174:22 0.00356763
7 *174:8 0.00295086
8 *174:22 *179:110 0.000759881
9 *174:30 *191:82 0.000334798
10 *174:30 *191:93 0
11 *174:30 *226:80 0.00135744
12 *174:38 *200:63 0.00015804
13 *174:38 *216:83 0.000138859
14 *174:38 *217:18 3.32202e-05
15 *174:38 *217:26 0.000834743
16 *174:38 *225:18 0.0002754
17 *174:44 *215:16 0
18 *1377:A *174:8 0.000195517
19 *1448:A1 *174:8 9.41704e-05
20 *1448:B1 *174:8 9.66668e-05
21 *1526:RESET_B *174:22 0.000143236
22 *29:12 *174:22 0.000282579
23 *29:32 *174:22 0.000112153
24 *31:16 *174:30 0
25 *38:14 *174:38 0
26 *52:26 *174:38 0.000483569
27 *61:12 *174:38 0
28 *81:14 *174:22 0.000142858
29 *87:22 *174:30 0.000158154
30 *88:74 *174:22 0.000124574
31 *91:6 *174:30 0.000395517
32 *102:16 *174:30 0.000400499
33 *104:10 *174:44 2.26497e-05
34 *115:60 *174:44 8.00906e-05
35 *124:30 *174:22 0.000582292
36 *126:28 *174:22 0.00146161
37 *132:8 *174:8 5.3304e-05
38 *132:14 *174:22 0.00073607
39 *142:26 *174:22 1.07299e-05
40 *169:34 *174:22 0.00132864
41 *171:10 *174:30 0.000110308
42 *173:10 *174:22 0.000125896
*RES
1 *1448:X *174:8 42.9093 
2 *174:8 *174:22 42.0745 
3 *174:22 *174:30 46.4175 
4 *174:30 *174:38 43.485 
5 *174:38 *174:44 32.61 
6 *174:44 *1449:C1 23 
*END

*D_NET *175 0.0246129
*CONN
*I *1454:A2 I *D sky130_fd_sc_hd__a21oi_1
*I *1451:C I *D sky130_fd_sc_hd__and3b_1
*I *1459:A2 I *D sky130_fd_sc_hd__a21boi_2
*I *1453:B I *D sky130_fd_sc_hd__nor2_1
*I *1450:Y O *D sky130_fd_sc_hd__nor2_2
*CAP
1 *1454:A2 0.000149472
2 *1451:C 0
3 *1459:A2 0
4 *1453:B 0.000248948
5 *1450:Y 0.000148533
6 *175:62 0.000599547
7 *175:51 0.000601893
8 *175:47 0.00135743
9 *175:34 0.00113557
10 *175:22 0.00155203
11 *175:14 0.00191244
12 *175:12 0.00176667
13 *175:8 0.000973633
14 *1453:B *193:8 4.67488e-05
15 *1454:A2 *191:18 7.53384e-06
16 *175:8 *1450:A 9.46082e-05
17 *175:12 *1355:A 0.000223805
18 *175:12 *190:28 0.00237146
19 *175:12 *199:68 0.00105555
20 *175:22 *190:22 5.50049e-05
21 *175:34 *190:22 0.000185342
22 *175:34 *215:31 1.80918e-05
23 *175:34 *215:35 0.00033522
24 *175:34 *216:40 3.11765e-05
25 *175:34 *216:42 0.000163352
26 *175:34 *216:99 0.000808216
27 *175:47 *216:99 0.000421498
28 *175:51 *1459:A1 2.32101e-05
29 *175:51 *189:99 0.000248863
30 *175:51 *226:71 0.0020453
31 *175:62 *1451:A_N 0.000100488
32 *175:62 *213:25 4.67488e-05
33 *175:62 *216:99 0.000361336
34 *1365:A_N *175:62 5.49467e-05
35 *1453:A *1453:B 4.2573e-05
36 *54:18 *175:62 0.000113484
37 *55:10 *175:34 0.00079478
38 *55:10 *175:47 0.000414525
39 *55:10 *175:62 0.000862286
40 *55:18 *175:34 0.000332391
41 *70:32 *175:62 4.12931e-05
42 *84:57 *175:51 0.00162077
43 *88:24 *1453:B 0.000219383
44 *97:73 *175:22 0.00025307
45 *98:14 *175:22 0.000250839
46 *113:26 *175:62 0.000522803
*RES
1 *1450:Y *175:8 40.5271 
2 *175:8 *175:12 46.1336 
3 *175:12 *175:14 13.0086 
4 *175:14 *175:22 42.9879 
5 *175:22 *175:34 36.17 
6 *175:34 *1453:B 42.4536 
7 *175:34 *175:47 5.77929 
8 *175:47 *175:51 38.49 
9 *175:51 *1459:A2 23 
10 *175:47 *175:62 32.98 
11 *175:62 *1451:C 23 
12 *175:14 *1454:A2 25.0507 
*END

*D_NET *176 0.0222231
*CONN
*I *1452:C1 I *D sky130_fd_sc_hd__a2111o_2
*I *1457:C I *D sky130_fd_sc_hd__or3_1
*I *1451:X O *D sky130_fd_sc_hd__and3b_1
*CAP
1 *1452:C1 0
2 *1457:C 0.000126658
3 *1451:X 0
4 *176:43 0.00203391
5 *176:41 0.00203391
6 *176:39 0.000774213
7 *176:27 0.00176385
8 *176:12 0.00226512
9 *176:6 0.00114883
10 *1457:C *190:22 0.000304686
11 *176:12 *1451:B 0.000102088
12 *176:12 *187:18 0.000165681
13 *176:12 *190:22 0.000126914
14 *176:12 *218:20 0.00108753
15 *176:27 *191:14 0.000296073
16 *176:39 *1438:A 0.000372754
17 *176:39 *218:34 0
18 *176:43 *189:47 0.0017549
19 *176:43 *225:10 0.00120256
20 *1429:A *176:39 4.52958e-05
21 *1429:C *176:39 8.46059e-05
22 *1447:A *176:43 8.06804e-06
23 *22:26 *176:12 8.7901e-05
24 *32:10 *176:27 0.000452008
25 *88:24 *176:12 0.000247855
26 *88:74 *176:43 6.64565e-05
27 *91:22 *176:43 4.21158e-05
28 *94:10 *176:12 8.20529e-05
29 *103:34 *176:27 0.00022426
30 *103:63 *176:39 2.21614e-05
31 *103:73 *176:39 6.75818e-05
32 *105:45 *176:39 9.93322e-05
33 *107:46 *1457:C 0.000157075
34 *107:46 *176:12 7.15126e-05
35 *129:71 *176:27 0.000444973
36 *135:10 *176:39 6.19192e-05
37 *135:18 *176:27 2.42513e-05
38 *146:20 *176:27 0.000235868
39 *149:31 *176:43 0.000866542
40 *150:12 *176:39 2.72234e-05
41 *166:10 *176:12 0.00111579
42 *166:10 *176:27 0.000581138
43 *167:6 *176:39 0.000980927
44 *167:18 *176:43 0.000566497
*RES
1 *1451:X *176:6 38 
2 *176:6 *176:12 49.4686 
3 *176:12 *1457:C 26.48 
4 *176:12 *176:27 41.97 
5 *176:27 *176:39 47.2136 
6 *176:39 *176:41 15 
7 *176:41 *176:43 44.4529 
8 *176:43 *1452:C1 23 
*END

*D_NET *177 0.0121187
*CONN
*I *1456:A I *D sky130_fd_sc_hd__buf_1
*I *1455:X O *D sky130_fd_sc_hd__or3_1
*CAP
1 *1456:A 0
2 *1455:X 0.000299199
3 *177:20 0.00122951
4 *177:14 0.00339325
5 *177:10 0.00246294
6 *177:10 *180:137 0.000100061
7 *177:10 *189:122 0.0001262
8 *177:14 *1512:CLK 1.40958e-05
9 *177:14 *180:137 9.62253e-05
10 *177:14 *189:122 0.000151549
11 *177:14 *205:52 1.0119e-05
12 *177:20 *180:110 0.00010974
13 *177:20 *184:8 2.33679e-05
14 *177:20 *193:14 1.13589e-05
15 *177:20 *196:10 5.14826e-05
16 *177:20 *215:45 0.000410129
17 *177:20 *224:24 0.000350757
18 *1512:RESET_B *177:14 9.50001e-05
19 *28:12 *177:14 0.00192663
20 *60:18 *177:20 0
21 *80:14 *177:20 0.00119651
22 *84:57 *177:20 5.58152e-06
23 *86:10 *177:20 0
24 *150:28 *177:20 0
25 *168:51 *177:20 5.50106e-05
*RES
1 *1455:X *177:10 27.9507 
2 *177:10 *177:14 46.1129 
3 *177:14 *177:20 40.5407 
4 *177:20 *1456:A 23 
*END

*D_NET *178 0.01665
*CONN
*I *1458:A I *D sky130_fd_sc_hd__clkbuf_1
*I *1457:X O *D sky130_fd_sc_hd__or3_1
*CAP
1 *1458:A 0
2 *1457:X 0.000103878
3 *178:22 0.00280591
4 *178:18 0.00367457
5 *178:14 0.00159768
6 *178:10 0.000832891
7 *178:10 *188:81 3.85131e-05
8 *178:10 *190:26 0.000139352
9 *178:14 *201:14 0.00108072
10 *178:14 *201:16 0.000730155
11 *178:18 *1409:A 1.22803e-05
12 *178:18 *200:75 0.000171796
13 *178:18 *201:16 0.000562472
14 *178:22 *183:91 3.29501e-05
15 *178:22 *210:10 0.00011036
16 *1389:B *178:18 5.40292e-05
17 *1445:B *178:22 0.00067986
18 *1496:D *178:22 0.000543911
19 *1519:RESET_B *178:22 0.000108415
20 *25:16 *178:14 0.000163326
21 *36:18 *178:18 0.000608083
22 *45:26 *178:14 4.334e-05
23 *61:12 *178:22 0.000145163
24 *97:73 *178:14 0.00154562
25 *98:14 *178:14 0.000103008
26 *98:14 *178:18 0.000599615
27 *112:18 *178:22 0.000156061
28 *129:30 *178:18 6.02277e-06
*RES
1 *1457:X *178:10 40.0714 
2 *178:10 *178:14 26.2968 
3 *178:14 *178:18 40.3232 
4 *178:18 *178:22 43.7486 
5 *178:22 *1458:A 23 
*END

*D_NET *179 0.0518088
*CONN
*I *1468:A I *D sky130_fd_sc_hd__inv_2
*I *1467:A I *D sky130_fd_sc_hd__inv_2
*I *1469:A I *D sky130_fd_sc_hd__inv_2
*I *1463:A I *D sky130_fd_sc_hd__inv_2
*I *1466:A I *D sky130_fd_sc_hd__inv_2
*I *1462:A I *D sky130_fd_sc_hd__inv_2
*I *1465:A I *D sky130_fd_sc_hd__inv_2
*I *1464:A I *D sky130_fd_sc_hd__inv_2
*I *1470:A I *D sky130_fd_sc_hd__inv_2
*I *1461:A I *D sky130_fd_sc_hd__inv_2
*I *1460:X O *D sky130_fd_sc_hd__clkbuf_8
*CAP
1 *1468:A 0
2 *1467:A 0
3 *1469:A 3.38653e-05
4 *1463:A 0.000208056
5 *1466:A 7.29955e-05
6 *1462:A 4.17433e-05
7 *1465:A 0.000106432
8 *1464:A 2.35907e-05
9 *1470:A 6.23911e-05
10 *1461:A 0
11 *1460:X 0
12 *179:163 0.000736759
13 *179:148 0.000219984
14 *179:133 0.00025385
15 *179:131 0.00136066
16 *179:127 0.00162631
17 *179:110 0.00245616
18 *179:93 0.00160352
19 *179:78 0.00166395
20 *179:60 0.00105319
21 *179:54 0.00171639
22 *179:52 0.001494
23 *179:39 0.00108057
24 *179:33 0.00187886
25 *179:24 0.000741531
26 *179:18 0.00127667
27 *179:10 0.00289859
28 *179:4 0.00192649
29 *1463:A *204:39 2.64616e-05
30 *1463:A *208:61 0.000131645
31 *1463:A *212:36 0.000433252
32 *1466:A *218:88 7.59794e-05
33 *1469:A *207:26 0.000188927
34 *1470:A *194:28 4.49877e-05
35 *1470:A *209:59 6.17437e-06
36 *179:10 *214:24 8.04857e-05
37 *179:10 *224:59 0.000149029
38 *179:10 *225:35 0.000137715
39 *179:18 *194:24 0.00136729
40 *179:18 *224:59 0.000113926
41 *179:18 *225:29 0.00012811
42 *179:24 *1372:B1 0.00014196
43 *179:24 *181:31 0.000227126
44 *179:24 *189:34 0.000474118
45 *179:24 *220:55 0.000175705
46 *179:24 *221:12 0.000106436
47 *179:39 *181:149 0.000154613
48 *179:39 *209:59 3.37763e-05
49 *179:52 *181:162 9.41704e-05
50 *179:52 *194:28 0.00163795
51 *179:52 *209:59 2.93104e-06
52 *179:54 *198:18 0.00030467
53 *179:54 *208:86 0.000850142
54 *179:60 *181:172 5.82853e-05
55 *179:60 *197:6 0.00267693
56 *179:60 *198:18 0.000226051
57 *179:78 *208:86 0.000210582
58 *179:93 *193:28 0.000196165
59 *179:93 *198:18 0.000193604
60 *179:93 *208:86 0.0019519
61 *179:93 *218:98 0
62 *179:110 *1531:A 2.14538e-05
63 *179:110 *180:27 0.000208344
64 *179:110 *185:53 8.05444e-05
65 *179:110 *190:62 0.000242554
66 *179:110 *204:39 4.85126e-05
67 *179:110 *224:14 0.000110922
68 *179:127 *1432:A 0.000121256
69 *179:127 *188:21 6.75079e-05
70 *179:127 *204:39 6.25829e-05
71 *179:127 *224:14 0.000221429
72 *179:127 *224:100 0.000370933
73 *179:131 *180:137 1.16831e-05
74 *179:131 *188:29 0.000106001
75 *179:131 *207:26 0
76 *179:131 *213:35 0
77 *179:148 *207:26 0.000236691
78 *179:163 *186:78 0.000572273
79 *179:163 *206:14 0.000143655
80 *1370:C *179:60 2.06129e-05
81 *1495:RESET_B *179:131 0.000533203
82 *1511:RESET_B *179:163 6.31687e-05
83 *1521:RESET_B *179:10 0.000135037
84 *1521:RESET_B *179:110 0.000543419
85 *36:10 *179:54 0.000998571
86 *43:10 *179:54 7.1299e-05
87 *43:10 *179:78 5.91913e-05
88 *43:10 *179:93 8.4372e-05
89 *44:8 *179:93 0
90 *49:8 *179:93 6.00001e-05
91 *54:6 *179:163 6.51746e-05
92 *61:16 *179:24 0.000330223
93 *67:10 *179:110 0
94 *72:10 *179:60 0.000374973
95 *76:12 *179:39 0.000206171
96 *77:10 *179:127 0.000602176
97 *93:6 *179:127 0.000957339
98 *95:64 *179:24 5.94125e-05
99 *97:10 *179:33 0.00182193
100 *97:55 *179:18 0.00112077
101 *115:10 *179:10 0.000439916
102 *115:20 *179:10 0.000185676
103 *117:20 *179:110 7.19917e-05
104 *123:10 *179:93 0
105 *132:14 *179:110 4.15283e-06
106 *133:10 *179:39 5.36298e-05
107 *142:26 *179:110 7.01431e-05
108 *142:26 *179:127 8.47448e-05
109 *142:34 *179:10 8.62783e-05
110 *143:30 *179:10 0.000479342
111 *143:30 *179:18 0.000245336
112 *147:76 *1469:A 0.000188927
113 *147:76 *179:148 0.000344292
114 *149:44 *179:127 0.000816899
115 *157:20 *179:24 8.62783e-05
116 *168:32 *179:33 1.27518e-05
117 *169:34 *179:54 7.57281e-06
118 *174:22 *179:110 0.000759881
*RES
1 *1460:X *179:4 23 
2 *179:4 *179:10 30.1007 
3 *179:10 *179:18 48.705 
4 *179:18 *179:24 32.5036 
5 *179:24 *1461:A 23 
6 *179:10 *179:33 37.5371 
7 *179:33 *179:39 34.0186 
8 *179:39 *1470:A 24.0979 
9 *179:39 *179:52 33.7464 
10 *179:52 *179:54 19.865 
11 *179:54 *179:60 49.8621 
12 *179:60 *1464:A 23.4971 
13 *179:54 *1465:A 39.5743 
14 *179:52 *179:78 2.96214 
15 *179:78 *1462:A 38.6214 
16 *179:78 *179:93 40.3514 
17 *179:93 *1466:A 39.5743 
18 *179:4 *179:110 41.1207 
19 *179:110 *1463:A 43.7586 
20 *179:110 *179:127 43.7307 
21 *179:127 *179:131 26.0614 
22 *179:131 *179:133 15 
23 *179:133 *1469:A 25.0507 
24 *179:133 *179:148 36.5664 
25 *179:148 *1467:A 23 
26 *179:131 *179:163 29.6864 
27 *179:163 *1468:A 23 
*END

*D_NET *180 0.040036
*CONN
*I *1480:A I *D sky130_fd_sc_hd__inv_2
*I *1477:A I *D sky130_fd_sc_hd__inv_2
*I *1481:A I *D sky130_fd_sc_hd__inv_2
*I *1478:A I *D sky130_fd_sc_hd__inv_2
*I *1479:A I *D sky130_fd_sc_hd__inv_2
*I *1473:A I *D sky130_fd_sc_hd__inv_2
*I *1476:A I *D sky130_fd_sc_hd__inv_2
*I *1474:A I *D sky130_fd_sc_hd__inv_2
*I *1472:A I *D sky130_fd_sc_hd__inv_2
*I *1475:A I *D sky130_fd_sc_hd__inv_2
*I *1471:X O *D sky130_fd_sc_hd__buf_4
*CAP
1 *1480:A 3.32149e-05
2 *1477:A 0
3 *1481:A 0
4 *1478:A 0
5 *1479:A 0
6 *1473:A 0
7 *1476:A 0
8 *1474:A 0
9 *1472:A 0
10 *1475:A 0
11 *1471:X 0
12 *180:156 0.000351834
13 *180:137 0.000613445
14 *180:125 0.00144921
15 *180:110 0.000192478
16 *180:90 0.000607938
17 *180:80 0.00144172
18 *180:70 0.00324381
19 *180:58 0.00363411
20 *180:48 0.000814696
21 *180:44 0.00104155
22 *180:31 0.000619334
23 *180:27 0.0016945
24 *180:25 0.00244577
25 *180:12 0.000423936
26 *180:4 0.00130553
27 *1480:A *185:62 5.3304e-05
28 *180:12 *200:50 4.05745e-05
29 *180:12 *201:56 0.000201502
30 *180:12 *206:26 0.000367323
31 *180:25 *1382:A 9.86777e-06
32 *180:25 *1431:A 0.000284979
33 *180:25 *191:51 0.000100477
34 *180:25 *201:56 0.000161149
35 *180:25 *224:65 0.000409295
36 *180:27 *191:51 0.000283044
37 *180:27 *217:41 0.000186981
38 *180:27 *220:66 0.000289695
39 *180:27 *220:77 0.00195153
40 *180:27 *224:71 4.69488e-06
41 *180:31 *214:12 0.000298503
42 *180:31 *223:25 0.000298503
43 *180:44 *190:86 0.000156083
44 *180:44 *195:33 0.000111356
45 *180:44 *205:10 0.000853599
46 *180:44 *214:12 0.000178517
47 *180:44 *223:25 0.000167786
48 *180:48 *185:6 0.000182673
49 *180:48 *185:12 8.7526e-05
50 *180:48 *216:24 0.00056663
51 *180:58 *1525:CLK 0.000121095
52 *180:58 *185:12 0.000196777
53 *180:58 *212:23 0.000298452
54 *180:58 *216:24 0.000336332
55 *180:58 *225:35 7.72602e-06
56 *180:70 *1485:A 9.67842e-05
57 *180:70 *186:16 0.000250117
58 *180:70 *189:85 4.67488e-05
59 *180:70 *202:6 2.93845e-05
60 *180:70 *202:57 0.000238143
61 *180:70 *211:46 0.000312494
62 *180:80 *1441:B1 0.000183652
63 *180:80 *215:35 0.000163354
64 *180:125 *1503:CLK 2.2324e-05
65 *180:125 *186:89 2.8337e-05
66 *180:125 *186:91 8.17991e-05
67 *180:125 *199:12 6.93074e-06
68 *180:125 *203:62 4.82772e-05
69 *180:125 *204:24 0.000537244
70 *180:125 *207:8 7.70499e-06
71 *180:125 *210:89 0.000118842
72 *180:125 *225:35 1.63828e-05
73 *180:137 *189:122 0.000271909
74 *180:137 *207:8 1.12148e-05
75 *180:137 *213:35 0.000562329
76 *180:156 *185:6 0.000155882
77 *180:156 *185:62 0.000209015
78 *180:156 *216:24 0.000226655
79 *1339:B1 *180:58 0
80 *1339:B1 *180:125 0
81 *1441:A1 *180:70 0.000206032
82 *1441:A1 *180:80 0.000185617
83 *1441:A1 *180:110 9.87387e-05
84 *1495:RESET_B *180:125 2.05503e-05
85 *1503:D *180:125 0.000174128
86 *1511:RESET_B *180:137 0
87 *22:20 *180:70 6.37845e-05
88 *22:26 *180:70 4.23262e-05
89 *22:26 *180:110 0.000175903
90 *51:8 *180:44 0.000325574
91 *55:10 *180:80 0.000334622
92 *60:8 *180:90 0.000221992
93 *60:18 *180:90 0.000631885
94 *60:18 *180:110 0
95 *61:12 *180:12 0.000146436
96 *61:16 *180:12 2.26497e-05
97 *63:8 *180:156 0.000235687
98 *65:10 *180:137 0.000640742
99 *67:10 *180:27 2.1184e-05
100 *84:78 *180:58 0.000394195
101 *91:14 *180:12 5.56356e-05
102 *91:14 *180:25 0.000365588
103 *94:10 *180:90 0.00105653
104 *99:10 *180:12 0.000350829
105 *103:8 *180:58 8.3072e-05
106 *105:128 *180:90 0.000298172
107 *125:8 *180:80 0.000167288
108 *125:8 *180:90 5.3304e-05
109 *130:10 *180:90 5.46821e-05
110 *132:14 *180:27 6.15174e-05
111 *138:10 *180:27 0.00107834
112 *147:96 *180:70 7.81851e-05
113 *156:31 *180:58 0
114 *170:58 *180:58 0.000113573
115 *170:64 *180:58 6.63159e-06
116 *177:10 *180:137 0.000100061
117 *177:14 *180:137 9.62253e-05
118 *177:20 *180:110 0.00010974
119 *179:110 *180:27 0.000208344
120 *179:131 *180:137 1.16831e-05
*RES
1 *1471:X *180:4 23 
2 *180:4 *180:12 40.3364 
3 *180:12 *1475:A 23 
4 *180:4 *180:25 32.3379 
5 *180:25 *180:27 40.6414 
6 *180:27 *180:31 18.48 
7 *180:31 *1472:A 23 
8 *180:31 *180:44 43.8164 
9 *180:44 *180:48 6.83571 
10 *180:48 *180:58 29.2618 
11 *180:58 *180:70 48.0496 
12 *180:70 *180:80 43.5886 
13 *180:80 *180:90 47.7314 
14 *180:90 *1474:A 23 
15 *180:80 *1476:A 23 
16 *180:70 *180:110 34.1014 
17 *180:110 *1473:A 23 
18 *180:58 *180:125 30.7946 
19 *180:125 *180:137 44.5 
20 *180:137 *1479:A 23 
21 *180:125 *1478:A 23 
22 *180:48 *1481:A 23 
23 *180:44 *180:156 8.265 
24 *180:156 *1477:A 23 
25 *180:156 *1480:A 23.6214 
*END

*D_NET *181 0.0477903
*CONN
*I *1489:A I *D sky130_fd_sc_hd__inv_2
*I *1487:A I *D sky130_fd_sc_hd__inv_2
*I *1491:A I *D sky130_fd_sc_hd__inv_2
*I *1486:A I *D sky130_fd_sc_hd__inv_2
*I *1484:A I *D sky130_fd_sc_hd__inv_2
*I *1488:A I *D sky130_fd_sc_hd__inv_2
*I *1492:A I *D sky130_fd_sc_hd__inv_2
*I *1485:A I *D sky130_fd_sc_hd__inv_2
*I *1490:A I *D sky130_fd_sc_hd__inv_2
*I *1483:A I *D sky130_fd_sc_hd__inv_2
*I *1482:X O *D sky130_fd_sc_hd__clkbuf_8
*CAP
1 *1489:A 0
2 *1487:A 0
3 *1491:A 0
4 *1486:A 3.21581e-05
5 *1484:A 0.000462454
6 *1488:A 0
7 *1492:A 0
8 *1485:A 2.84143e-05
9 *1490:A 0
10 *1483:A 0
11 *1482:X 0
12 *181:187 0.00112035
13 *181:172 0.00139982
14 *181:162 0.00272868
15 *181:151 0.000208509
16 *181:149 0.000372036
17 *181:141 0.00137885
18 *181:124 0.00128709
19 *181:98 0.000912179
20 *181:92 0.00341349
21 *181:81 0.00182694
22 *181:75 0.00482057
23 *181:58 0.00210906
24 *181:52 0.00175012
25 *181:44 0.00114051
26 *181:31 0.00121021
27 *181:12 0.000493418
28 *181:4 0.00143549
29 *1486:A *193:22 4.39801e-05
30 *181:12 *191:82 9.65021e-05
31 *181:12 *217:18 0.000227654
32 *181:12 *225:18 2.26385e-05
33 *181:31 *191:82 8.46778e-05
34 *181:31 *221:12 0.000619235
35 *181:31 *226:6 4.08664e-05
36 *181:31 *226:10 0.000178391
37 *181:52 *206:26 5.53554e-05
38 *181:58 *186:16 9.28078e-06
39 *181:58 *206:26 0.00116626
40 *181:75 *1357:A 3.19892e-06
41 *181:75 *186:16 0.000778555
42 *181:75 *186:23 0.000182994
43 *181:75 *186:34 0.000467797
44 *181:75 *189:114 9.22483e-05
45 *181:92 *188:29 0.00113226
46 *181:92 *188:116 0.000700429
47 *181:98 *188:116 0.000243215
48 *181:141 *193:22 0.00208041
49 *181:141 *203:77 0.000254788
50 *1335:A *181:31 0.000239354
51 *1344:A *181:149 0.000105849
52 *1411:C1 *181:172 0
53 *1443:C *181:187 0.00026626
54 *1459:B1_N *181:75 0.00017592
55 *1515:RESET_B *181:81 0.000426214
56 *1522:RESET_B *181:31 0.000152986
57 *11:17 *181:58 0.000412307
58 *21:16 *181:187 7.73735e-05
59 *22:20 *1485:A 9.67842e-05
60 *22:20 *181:75 0
61 *27:12 *1484:A 0
62 *32:22 *181:81 5.43544e-05
63 *35:10 *181:162 0
64 *35:10 *181:172 2.37942e-05
65 *47:12 *181:92 2.02872e-05
66 *47:134 *181:187 0.000641143
67 *48:12 *181:12 0.000311074
68 *49:12 *181:52 0.000600425
69 *49:12 *181:124 0.000179725
70 *54:18 *181:81 7.18106e-05
71 *61:16 *181:31 0
72 *68:16 *181:12 0.000334682
73 *69:10 *181:58 0.000638726
74 *70:8 *181:75 0.00033981
75 *71:6 *181:141 0.00011268
76 *74:8 *181:187 0.000190005
77 *76:50 *181:75 3.71852e-05
78 *76:50 *181:92 0.000156418
79 *76:68 *181:81 0.000748621
80 *76:68 *181:92 8.55549e-05
81 *80:14 *181:81 0.000162254
82 *82:12 *181:31 2.46906e-05
83 *82:12 *181:44 0.000253535
84 *82:18 *181:44 5.08266e-05
85 *84:6 *181:98 0.000521774
86 *87:22 *181:52 0.000125168
87 *87:22 *181:58 0.000361089
88 *87:24 *181:58 7.02441e-06
89 *87:51 *181:58 0.000175791
90 *87:51 *181:75 1.74959e-05
91 *96:19 *1484:A 8.90777e-05
92 *96:19 *181:98 3.56328e-05
93 *107:40 *181:58 4.96024e-05
94 *115:30 *181:12 4.96303e-05
95 *115:30 *181:31 4.96207e-05
96 *133:10 *181:149 0.000157564
97 *133:10 *181:162 0.000200982
98 *133:10 *181:172 0.000293984
99 *145:6 *181:149 9.41704e-05
100 *145:12 *181:172 0
101 *147:35 *181:172 0
102 *155:26 *181:124 3.76157e-05
103 *156:10 *181:44 2.46399e-05
104 *156:29 *181:124 0.000161748
105 *158:10 *181:58 6.15681e-05
106 *165:43 *1486:A 2.72126e-05
107 *165:43 *181:141 0.000892023
108 *168:26 *181:44 9.05662e-05
109 *168:32 *181:44 3.35966e-05
110 *179:24 *181:31 0.000227126
111 *179:39 *181:149 0.000154613
112 *179:52 *181:162 9.41704e-05
113 *179:60 *181:172 5.82853e-05
114 *180:70 *1485:A 9.67842e-05
*RES
1 *1482:X *181:4 23 
2 *181:4 *181:12 42.1593 
3 *181:12 *1483:A 23 
4 *181:4 *181:31 49.8857 
5 *181:31 *1490:A 23 
6 *181:31 *181:44 36.2971 
7 *181:44 *181:52 24.1868 
8 *181:52 *181:58 28.5339 
9 *181:58 *1485:A 39.0979 
10 *181:58 *181:75 36.3357 
11 *181:75 *181:81 42.1564 
12 *181:81 *1492:A 38 
13 *181:75 *181:92 44.2071 
14 *181:92 *181:98 33.9743 
15 *181:98 *1488:A 23 
16 *181:92 *1484:A 46.6586 
17 *181:44 *181:124 34.3086 
18 *181:124 *1486:A 23.9321 
19 *181:124 *181:141 42.1564 
20 *181:141 *181:149 35.7379 
21 *181:149 *181:151 15 
22 *181:151 *1491:A 23 
23 *181:151 *181:162 19.06 
24 *181:162 *181:172 38.7179 
25 *181:172 *1487:A 23 
26 *181:162 *181:187 38.5521 
27 *181:187 *1489:A 23 
*END

*D_NET *182 0.018596
*CONN
*I *1531:A I *D sky130_fd_sc_hd__clkbuf_16
*I *1532:A I *D sky130_fd_sc_hd__clkbuf_16
*I *1530:A I *D sky130_fd_sc_hd__clkbuf_16
*I *1529:A I *D sky130_fd_sc_hd__clkbuf_16
*I *1528:X O *D sky130_fd_sc_hd__clkbuf_16
*CAP
1 *1531:A 0.000269201
2 *1532:A 0
3 *1530:A 0
4 *1529:A 0
5 *1528:X 0
6 *182:72 0.000680246
7 *182:66 0.00204568
8 *182:53 0.000740846
9 *182:34 0.000755443
10 *182:12 0.00292965
11 *182:6 0.00252959
12 *1531:A *190:62 4.60157e-05
13 *182:12 *189:18 2.05503e-05
14 *182:34 *208:18 5.58873e-06
15 *182:34 *210:52 2.47015e-05
16 *182:34 *220:40 0.00105052
17 *182:53 *187:34 2.11157e-05
18 *182:53 *199:48 0.000283801
19 *182:53 *220:40 8.83358e-05
20 *182:66 *211:35 0
21 *182:72 *186:125 0.000159075
22 *182:72 *218:82 8.04817e-05
23 *182:72 *224:43 0
24 *182:72 *226:39 8.48238e-05
25 *182:72 *226:52 4.24534e-05
26 *1503:RESET_B *182:72 0.000402
27 *1526:RESET_B *182:12 0.000355328
28 *1526:RESET_B *182:34 1.29843e-05
29 *11:17 *182:34 0
30 *39:22 *182:34 0.00102295
31 *84:82 *182:72 1.28507e-05
32 *87:32 *182:53 0.000110258
33 *88:50 *182:53 0
34 *95:36 *182:53 2.33476e-05
35 *107:34 *182:72 0.000809937
36 *108:18 *182:53 0.000409091
37 *109:38 *182:12 0.000543701
38 *117:20 *1531:A 0.00037201
39 *117:20 *182:66 0.000799882
40 *131:24 *182:12 5.32879e-05
41 *131:24 *182:66 0
42 *153:10 *182:53 0.000760003
43 *156:31 *182:12 2.26497e-05
44 *156:31 *182:66 0.00055995
45 *157:10 *182:72 1.84049e-05
46 *158:18 *182:72 0.000427831
47 *160:37 *182:53 0
48 *179:110 *1531:A 2.14538e-05
*RES
1 *1528:X *182:6 38 
2 *182:6 *182:12 11.7259 
3 *182:12 *182:34 43.5691 
4 *182:34 *1529:A 38 
5 *182:12 *182:53 35.8592 
6 *182:53 *1530:A 38 
7 *182:6 *182:66 17.3177 
8 *182:66 *182:72 40.5761 
9 *182:72 *1532:A 23 
10 *182:66 *1531:A 47.4161 
*END

*D_NET *183 0.0225931
*CONN
*I *1521:CLK I *D sky130_fd_sc_hd__dfrtp_1
*I *1514:CLK I *D sky130_fd_sc_hd__dfrtp_4
*I *1522:CLK I *D sky130_fd_sc_hd__dfrtp_4
*I *1496:CLK I *D sky130_fd_sc_hd__dfrtp_4
*I *1502:CLK I *D sky130_fd_sc_hd__dfrtp_1
*I *1501:CLK I *D sky130_fd_sc_hd__dfrtp_1
*I *1504:CLK I *D sky130_fd_sc_hd__dfrtp_1
*I *1499:CLK I *D sky130_fd_sc_hd__dfrtp_4
*I *1519:CLK I *D sky130_fd_sc_hd__dfrtp_4
*I *1529:X O *D sky130_fd_sc_hd__clkbuf_16
*CAP
1 *1521:CLK 0.00032139
2 *1514:CLK 0
3 *1522:CLK 4.03639e-05
4 *1496:CLK 0
5 *1502:CLK 4.23027e-05
6 *1501:CLK 0
7 *1504:CLK 0
8 *1499:CLK 0
9 *1519:CLK 0.000343471
10 *1529:X 0
11 *183:91 0.00122001
12 *183:83 0.00173224
13 *183:81 0.000543937
14 *183:77 0.000921256
15 *183:68 0.00105512
16 *183:51 0.000646445
17 *183:20 0.0010498
18 *183:18 0.00127106
19 *183:12 0.00108217
20 *183:4 0.000678861
21 *1519:CLK *210:16 7.61229e-06
22 *1522:CLK *199:56 5.56356e-05
23 *183:12 *200:110 6.72393e-05
24 *183:20 *201:16 0
25 *183:20 *210:16 0
26 *183:51 *193:14 2.16255e-05
27 *183:81 *199:48 0.000138718
28 *183:83 *199:48 0.000789677
29 *183:83 *208:18 1.42872e-05
30 *183:91 *187:72 0.00122911
31 *1335:A *1522:CLK 9.77405e-05
32 *1383:C *1521:CLK 0.000203498
33 *1383:C *183:77 0.000229882
34 *1445:B *1519:CLK 0.000237027
35 *1496:D *183:91 8.26478e-05
36 *1499:D *1519:CLK 7.76909e-06
37 *1499:D *183:20 3.50862e-06
38 *1501:RESET_B *183:51 3.70187e-05
39 *1501:RESET_B *183:68 0.000357366
40 *1521:D *1521:CLK 2.34279e-05
41 *32:6 *183:12 0.00106085
42 *32:6 *183:51 8.76309e-05
43 *42:30 *183:51 1.02219e-05
44 *45:14 *183:18 0
45 *45:14 *183:20 0
46 *47:60 *183:18 0.00043944
47 *49:20 *183:83 0.00017776
48 *49:20 *183:91 0.000921579
49 *54:28 *183:68 1.23458e-05
50 *86:22 *183:51 0.000119073
51 *86:22 *183:68 0.000218952
52 *95:24 *183:51 4.08298e-05
53 *97:73 *183:12 0.000238768
54 *98:14 *183:12 0.000239608
55 *103:47 *183:81 8.4047e-05
56 *105:66 *183:51 2.50707e-05
57 *112:18 *183:91 0.000279227
58 *134:73 *183:12 0.00118345
59 *134:73 *183:51 9.77405e-05
60 *141:16 *1519:CLK 0.00021739
61 *141:16 *183:18 0.00060949
62 *141:16 *183:20 0.00126682
63 *144:24 *183:20 0
64 *153:10 *183:81 1.88972e-05
65 *153:10 *183:83 0.000180535
66 *155:63 *183:68 0.000103948
67 *155:63 *183:77 8.49477e-05
68 *160:33 *183:68 0
69 *170:16 *183:83 1.07299e-05
70 *170:16 *183:91 0.000278645
71 *178:22 *183:91 3.29501e-05
*RES
1 *1529:X *183:4 23 
2 *183:4 *183:12 46.7993 
3 *183:12 *183:18 28.1536 
4 *183:18 *183:20 17.0479 
5 *183:20 *1519:CLK 45.9543 
6 *183:20 *1499:CLK 38 
7 *183:18 *1504:CLK 38 
8 *183:4 *183:51 19.06 
9 *183:51 *1501:CLK 38 
10 *183:51 *183:68 24.3214 
11 *183:68 *1502:CLK 23.8493 
12 *183:68 *183:77 7.29143 
13 *183:77 *183:81 16.9057 
14 *183:81 *183:83 11.4136 
15 *183:83 *183:91 46.465 
16 *183:91 *1496:CLK 23 
17 *183:83 *1522:CLK 39.0979 
18 *183:81 *1514:CLK 38 
19 *183:77 *1521:CLK 28.4271 
*END

*D_NET *184 0.0162967
*CONN
*I *1516:CLK I *D sky130_fd_sc_hd__dfrtp_2
*I *1513:CLK I *D sky130_fd_sc_hd__dfrtp_4
*I *1526:CLK I *D sky130_fd_sc_hd__dfrtp_4
*I *1500:CLK I *D sky130_fd_sc_hd__dfrtp_2
*I *1533:A I *D sky130_fd_sc_hd__clkbuf_4
*I *1515:CLK I *D sky130_fd_sc_hd__dfrtp_1
*I *1523:CLK I *D sky130_fd_sc_hd__dfrtp_4
*I *1517:CLK I *D sky130_fd_sc_hd__dfrtp_1
*I *1497:CLK I *D sky130_fd_sc_hd__dfrtp_4
*I *1506:CLK I *D sky130_fd_sc_hd__dfrtp_2
*I *1530:X O *D sky130_fd_sc_hd__clkbuf_16
*CAP
1 *1516:CLK 0.000245167
2 *1513:CLK 0
3 *1526:CLK 0.000208206
4 *1500:CLK 8.81845e-05
5 *1533:A 0
6 *1515:CLK 9.86116e-05
7 *1523:CLK 0
8 *1517:CLK 0.000726652
9 *1497:CLK 0
10 *1506:CLK 0.000313537
11 *1530:X 0
12 *184:99 0.000312832
13 *184:97 0.00124387
14 *184:82 0.00102846
15 *184:59 0.000327634
16 *184:38 0.00158946
17 *184:31 0.000391514
18 *184:27 0.00121797
19 *184:12 0.00062374
20 *184:8 0.000453257
21 *184:4 0.000381925
22 *1500:CLK *216:32 1.84917e-05
23 *1506:CLK *1441:B1 2.93747e-05
24 *1517:CLK *1434:A 8.58775e-05
25 *1526:CLK *190:48 9.02048e-05
26 *1526:CLK *210:56 0.000184289
27 *184:8 *215:45 0.000298503
28 *184:12 *1441:B1 0.000172198
29 *184:12 *215:35 1.14452e-05
30 *184:27 *1441:B1 5.884e-05
31 *184:31 *218:14 7.62357e-05
32 *184:31 *218:62 0.000126174
33 *184:38 *203:39 3.83778e-05
34 *184:59 *213:21 7.06313e-05
35 *184:97 *210:56 0.000284427
36 *184:97 *216:32 0.000217748
37 *184:99 *187:44 0
38 *184:99 *210:56 0.000213059
39 *1441:A1 *1506:CLK 0.000116763
40 *1441:A2 *1506:CLK 5.3304e-05
41 *1497:D *184:31 0.000310861
42 *1497:RESET_B *184:31 0.00106404
43 *1500:RESET_B *184:97 0.000260587
44 *1506:RESET_B *1506:CLK 3.73132e-05
45 *1517:RESET_B *1517:CLK 1.07585e-05
46 *1523:D *1515:CLK 0.000355813
47 *29:32 *1526:CLK 3.95949e-05
48 *32:18 *184:31 0.000140935
49 *32:22 *1515:CLK 0.000353325
50 *33:16 *1516:CLK 0.000547523
51 *33:16 *184:97 0.000103918
52 *54:18 *184:82 8.36198e-05
53 *55:10 *184:27 5.2349e-05
54 *55:10 *184:38 0.000285718
55 *55:10 *184:59 3.33324e-05
56 *62:8 *184:38 0
57 *62:8 *184:59 0
58 *83:8 *1526:CLK 4.27352e-05
59 *87:44 *184:97 4.84545e-05
60 *87:44 *184:99 9.28078e-06
61 *88:12 *184:82 8.36198e-05
62 *88:60 *1516:CLK 0.00046579
63 *89:14 *184:27 5.72967e-05
64 *89:14 *184:38 0.000186845
65 *109:28 *1526:CLK 5.58473e-05
66 *109:28 *184:99 0.00015205
67 *169:8 *184:12 8.32402e-05
68 *169:8 *184:27 1.14987e-05
69 *177:20 *184:8 2.33679e-05
*RES
1 *1530:X *184:4 23 
2 *184:4 *184:8 4.45357 
3 *184:8 *184:12 17.61 
4 *184:12 *1506:CLK 42.9507 
5 *184:12 *184:27 3.66643 
6 *184:27 *184:31 27.0557 
7 *184:31 *1497:CLK 23 
8 *184:27 *184:38 13.5264 
9 *184:38 *1517:CLK 47.2386 
10 *184:38 *184:59 19.4329 
11 *184:59 *1523:CLK 23 
12 *184:59 *1515:CLK 26.9564 
13 *184:8 *1533:A 23 
14 *184:4 *184:82 31.2014 
15 *184:82 *1500:CLK 24.4707 
16 *184:82 *184:97 29.1686 
17 *184:97 *184:99 2.96214 
18 *184:99 *1526:CLK 42.6607 
19 *184:99 *1513:CLK 38 
20 *184:97 *1516:CLK 44.3386 
*END

*D_NET *185 0.0162063
*CONN
*I *1520:CLK I *D sky130_fd_sc_hd__dfrtp_4
*I *1505:CLK I *D sky130_fd_sc_hd__dfrtp_4
*I *1518:CLK I *D sky130_fd_sc_hd__dfrtp_2
*I *1534:A I *D sky130_fd_sc_hd__clkinv_2
*I *1525:CLK I *D sky130_fd_sc_hd__dfrtp_4
*I *1524:CLK I *D sky130_fd_sc_hd__dfrtp_4
*I *1508:CLK I *D sky130_fd_sc_hd__dfrtp_2
*I *1531:X O *D sky130_fd_sc_hd__clkbuf_16
*CAP
1 *1520:CLK 0
2 *1505:CLK 0
3 *1518:CLK 0
4 *1534:A 0
5 *1525:CLK 7.72263e-05
6 *1524:CLK 0.000103361
7 *1508:CLK 0
8 *1531:X 0
9 *185:92 0.00083447
10 *185:70 0.000501792
11 *185:64 0.000628518
12 *185:62 0.00180752
13 *185:53 0.000111036
14 *185:22 0.000571291
15 *185:16 0.000870112
16 *185:12 0.000529145
17 *185:6 0.000603742
18 *185:4 0.00108257
19 *1524:CLK *224:43 1.61361e-05
20 *185:92 *192:10 0
21 *185:92 *216:10 0.000256164
22 *1480:A *185:62 5.3304e-05
23 *1508:RESET_B *185:22 7.72976e-05
24 *1518:D *185:70 0.000126847
25 *21:20 *185:70 0.000234592
26 *37:30 *185:92 1.05235e-05
27 *43:24 *185:22 0.000139352
28 *66:14 *1524:CLK 0.000135037
29 *74:20 *185:70 0.000226306
30 *79:10 *185:70 0.000227385
31 *81:14 *1524:CLK 6.17437e-06
32 *81:14 *185:22 0.000999917
33 *84:82 *185:16 0.000325559
34 *84:82 *185:22 0.0010571
35 *106:31 *185:64 9.96205e-05
36 *106:31 *185:70 0.000200207
37 *106:31 *185:92 0.000177658
38 *107:34 *185:16 9.42416e-05
39 *117:20 *185:53 3.46013e-05
40 *117:24 *185:6 0.000635673
41 *117:24 *185:12 5.3304e-05
42 *117:24 *185:62 0.00136607
43 *131:24 *185:16 4.32962e-05
44 *131:24 *185:22 2.51583e-05
45 *142:26 *185:53 0.000211272
46 *154:10 *185:70 0
47 *155:8 *185:92 1.59094e-05
48 *170:64 *1525:CLK 6.55954e-05
49 *170:64 *185:12 0.000537705
50 *179:110 *185:53 8.05444e-05
51 *180:48 *185:6 0.000182673
52 *180:48 *185:12 8.7526e-05
53 *180:58 *1525:CLK 0.000121095
54 *180:58 *185:12 0.000196777
55 *180:156 *185:6 0.000155882
56 *180:156 *185:62 0.000209015
*RES
1 *1531:X *185:4 23 
2 *185:4 *185:6 7.29143 
3 *185:6 *185:12 7.45714 
4 *185:12 *185:16 19.7229 
5 *185:16 *185:22 31.5093 
6 *185:22 *1508:CLK 23 
7 *185:16 *1524:CLK 40.0714 
8 *185:12 *1525:CLK 25.0714 
9 *185:6 *185:53 32.9621 
10 *185:53 *1534:A 23 
11 *185:4 *185:62 34.2021 
12 *185:62 *185:64 2.96214 
13 *185:64 *185:70 28.5886 
14 *185:70 *1518:CLK 23 
15 *185:64 *1505:CLK 38 
16 *185:62 *185:92 28.3607 
17 *185:92 *1520:CLK 23 
*END

*D_NET *186 0.0171421
*CONN
*I *1510:CLK I *D sky130_fd_sc_hd__dfrtp_2
*I *1498:CLK I *D sky130_fd_sc_hd__dfrtp_2
*I *1535:A I *D sky130_fd_sc_hd__clkbuf_4
*I *1503:CLK I *D sky130_fd_sc_hd__dfrtp_4
*I *1511:CLK I *D sky130_fd_sc_hd__dfrtp_4
*I *1509:CLK I *D sky130_fd_sc_hd__dfrtp_2
*I *1495:CLK I *D sky130_fd_sc_hd__dfrtp_4
*I *1512:CLK I *D sky130_fd_sc_hd__dfrtp_4
*I *1507:CLK I *D sky130_fd_sc_hd__dfrtp_4
*I *1532:X O *D sky130_fd_sc_hd__clkbuf_16
*CAP
1 *1510:CLK 7.56789e-05
2 *1498:CLK 0
3 *1535:A 0
4 *1503:CLK 0.00039048
5 *1511:CLK 0
6 *1509:CLK 0
7 *1495:CLK 2.44422e-05
8 *1512:CLK 7.40412e-05
9 *1507:CLK 0
10 *1532:X 0
11 *186:125 0.000242811
12 *186:117 0.000596602
13 *186:91 0.000514021
14 *186:89 0.000535455
15 *186:78 0.000494679
16 *186:59 0.000545845
17 *186:47 0.00135526
18 *186:34 0.000802301
19 *186:23 0.000647441
20 *186:16 0.000618227
21 *186:8 0.000866316
22 *186:4 0.000271613
23 *1503:CLK *199:99 0.000100069
24 *1510:CLK *207:73 2.81066e-05
25 *1510:CLK *213:54 8.17328e-05
26 *1512:CLK *205:52 9.67908e-05
27 *186:8 *1357:A 0.000136743
28 *186:8 *1357:B 0.000191255
29 *186:8 *189:114 0.000139352
30 *186:8 *198:10 1.03955e-05
31 *186:8 *203:62 0.0005717
32 *186:8 *205:44 4.18888e-05
33 *186:47 *206:14 4.40479e-06
34 *186:59 *195:33 0.000130187
35 *186:59 *204:8 1.59094e-05
36 *186:59 *206:14 7.15126e-05
37 *186:59 *207:36 0.000105061
38 *186:59 *208:121 4.36401e-06
39 *186:78 *195:33 0.000110155
40 *186:78 *206:14 1.56762e-05
41 *186:89 *1357:B 0.000129054
42 *186:89 *199:12 0.000142173
43 *186:89 *199:27 9.1946e-06
44 *186:89 *203:62 0.000275873
45 *186:91 *199:27 3.91882e-05
46 *186:117 *205:44 0.000396475
47 *186:117 *207:73 3.16665e-05
48 *186:117 *213:54 0.000219383
49 *186:125 *199:107 2.79662e-05
50 *186:125 *226:52 0.000161307
51 *1354:A *186:34 0.000386237
52 *1495:D *1495:CLK 5.41385e-05
53 *1509:RESET_B *186:59 9.8326e-05
54 *1511:D *186:78 8.1796e-05
55 *1511:RESET_B *186:34 0
56 *1511:RESET_B *186:47 0
57 *1511:RESET_B *186:78 2.84479e-05
58 *22:20 *186:34 0
59 *22:26 *186:16 0.000161551
60 *28:12 *1512:CLK 7.44354e-05
61 *54:6 *186:78 0.000201976
62 *54:12 *186:47 3.98183e-05
63 *55:6 *186:59 0.00046313
64 *55:6 *186:78 6.17437e-06
65 *69:10 *186:16 0.000813118
66 *69:10 *186:23 7.58755e-05
67 *69:10 *186:34 0.000162142
68 *69:10 *186:47 6.43005e-05
69 *106:25 *1495:CLK 9.84851e-05
70 *106:25 *186:34 8.51049e-05
71 *106:25 *186:47 2.55642e-05
72 *156:56 *1503:CLK 0.000131847
73 *156:56 *186:125 0.000180218
74 *177:14 *1512:CLK 1.40958e-05
75 *179:163 *186:78 0.000572273
76 *180:70 *186:16 0.000250117
77 *180:125 *1503:CLK 2.2324e-05
78 *180:125 *186:89 2.8337e-05
79 *180:125 *186:91 8.17991e-05
80 *181:58 *186:16 9.28078e-06
81 *181:75 *186:16 0.000778555
82 *181:75 *186:23 0.000182994
83 *181:75 *186:34 0.000467797
84 *182:72 *186:125 0.000159075
*RES
1 *1532:X *186:4 23 
2 *186:4 *186:8 21.3386 
3 *186:8 *186:16 30.8671 
4 *186:16 *1507:CLK 23 
5 *186:8 *186:23 2.61 
6 *186:23 *1512:CLK 40.0507 
7 *186:23 *186:34 11.4136 
8 *186:34 *1495:CLK 39.0979 
9 *186:34 *186:47 20.7793 
10 *186:47 *186:59 41.89 
11 *186:59 *1509:CLK 23 
12 *186:47 *186:78 43.4643 
13 *186:78 *1511:CLK 23 
14 *186:4 *186:89 19.205 
15 *186:89 *186:91 2.61 
16 *186:91 *1503:CLK 43.4271 
17 *186:91 *1535:A 38 
18 *186:89 *186:117 20.8621 
19 *186:117 *186:125 35.2614 
20 *186:125 *1498:CLK 23 
21 *186:117 *1510:CLK 24.595 
*END

*D_NET *187 0.0442858
*CONN
*I *1451:B I *D sky130_fd_sc_hd__and3b_1
*I *1327:C I *D sky130_fd_sc_hd__and3_2
*I *1455:C I *D sky130_fd_sc_hd__or3_1
*I *1339:A2 I *D sky130_fd_sc_hd__a21oi_1
*I *1338:B1 I *D sky130_fd_sc_hd__a21oi_1
*I *1332:A I *D sky130_fd_sc_hd__nor2_1
*I *1454:A1 I *D sky130_fd_sc_hd__a21oi_1
*I *1336:A2 I *D sky130_fd_sc_hd__a21oi_1
*I *1523:Q O *D sky130_fd_sc_hd__dfrtp_4
*CAP
1 *1451:B 7.46694e-05
2 *1327:C 0
3 *1455:C 0
4 *1339:A2 0.000247718
5 *1338:B1 0
6 *1332:A 0
7 *1454:A1 0
8 *1336:A2 0
9 *1523:Q 0.000517665
10 *187:158 0.000181753
11 *187:152 0.00162478
12 *187:145 0.0020197
13 *187:128 0.0015673
14 *187:111 0.00165562
15 *187:89 0.000963652
16 *187:72 0.000565175
17 *187:66 0.00166282
18 *187:58 0.00246192
19 *187:44 0.00323816
20 *187:34 0.00154276
21 *187:22 0.0020741
22 *187:18 0.00116102
23 *187:12 0.00122448
24 *1339:A2 *211:59 0.000136705
25 *1339:A2 *214:55 2.68661e-05
26 *1339:A2 *224:14 1.21972e-05
27 *1339:A2 *224:18 1.94693e-05
28 *1339:A2 *224:43 8.44532e-05
29 *1339:A2 *226:39 0.000386916
30 *187:18 *204:62 0.00180462
31 *187:22 *199:48 0.000289833
32 *187:34 *1369:A 9.41704e-05
33 *187:34 *199:48 0.000405536
34 *187:34 *215:45 9.41704e-05
35 *187:44 *208:14 0.000301607
36 *187:66 *220:20 4.80785e-07
37 *187:66 *220:40 4.43469e-05
38 *187:72 *188:90 0.000238668
39 *187:89 *191:18 0.000219383
40 *187:89 *196:16 1.94463e-05
41 *187:89 *208:14 0
42 *187:111 *1338:A1 0.00030373
43 *187:111 *189:95 8.48502e-06
44 *187:128 *1328:A 9.75779e-05
45 *187:128 *189:95 2.18506e-05
46 *187:145 *1455:A 5.50049e-05
47 *187:145 *189:122 1.59094e-05
48 *187:145 *207:73 0.000166513
49 *187:145 *211:59 0.000827881
50 *187:145 *226:39 0.000312436
51 *187:145 *226:52 0.000218143
52 *187:145 *226:54 2.64616e-05
53 *187:152 *1455:A 0.000352426
54 *187:152 *226:54 0.00169764
55 *187:158 *192:10 0.0003834
56 *1328:B *187:128 0.000150285
57 *1338:A2 *187:111 2.02872e-05
58 *28:12 *187:18 0.00180632
59 *29:32 *187:66 0.00100432
60 *30:6 *187:111 2.38387e-06
61 *32:22 *187:12 5.90398e-05
62 *33:16 *187:34 0.000334221
63 *47:28 *187:22 0
64 *50:30 *187:111 0.000385201
65 *52:26 *187:72 8.937e-05
66 *53:12 *1339:A2 9.75779e-05
67 *60:18 *187:89 0
68 *76:42 *187:152 0.000467715
69 *80:14 *187:34 0.000121723
70 *84:20 *187:128 0.000589669
71 *85:8 *187:128 9.5877e-05
72 *86:55 *187:89 0.000143378
73 *87:44 *187:34 2.31765e-05
74 *88:50 *187:44 4.12594e-05
75 *90:18 *187:66 0
76 *92:8 *187:128 2.05853e-05
77 *94:10 *1451:B 0.000223128
78 *94:10 *187:18 0.000363849
79 *94:10 *187:89 1.58785e-05
80 *95:24 *187:58 0.000222278
81 *95:36 *187:34 0.000346699
82 *103:34 *187:89 0.00121217
83 *109:28 *187:44 2.58165e-05
84 *115:30 *187:66 0.000334767
85 *115:34 *187:66 9.67842e-05
86 *115:60 *187:66 1.46784e-05
87 *117:10 *187:34 0.000219101
88 *127:12 *187:66 0
89 *134:29 *187:12 8.26478e-05
90 *134:73 *187:58 0.000444828
91 *141:14 *1339:A2 2.11066e-05
92 *144:12 *187:58 0.000442508
93 *147:96 *187:22 0.000509309
94 *147:96 *187:34 0.000158248
95 *153:10 *187:22 0.000144925
96 *153:10 *187:34 9.63548e-05
97 *160:33 *187:58 6.41332e-05
98 *160:37 *187:44 0
99 *168:20 *187:66 0
100 *169:26 *187:58 0.000166413
101 *170:14 *187:22 3.88538e-05
102 *170:16 *187:72 0.000621348
103 *176:12 *1451:B 0.000102088
104 *176:12 *187:18 0.000165681
105 *182:53 *187:34 2.11157e-05
106 *183:91 *187:72 0.00122911
107 *184:99 *187:44 0
*RES
1 *1523:Q *187:12 44.9807 
2 *187:12 *187:18 40.23 
3 *187:18 *187:22 26.7657 
4 *187:22 *187:34 45.7843 
5 *187:34 *187:44 19.9926 
6 *187:44 *187:58 40.1807 
7 *187:58 *187:66 49.8443 
8 *187:66 *187:72 47.0479 
9 *187:72 *1336:A2 23 
10 *187:44 *187:89 36.6177 
11 *187:89 *1454:A1 23 
12 *187:34 *1332:A 38 
13 *187:22 *187:111 29.1479 
14 *187:111 *1338:B1 23 
15 *187:111 *187:128 28.34 
16 *187:128 *1339:A2 44.525 
17 *187:128 *187:145 28.34 
18 *187:145 *1455:C 23 
19 *187:145 *187:152 36.3536 
20 *187:152 *187:158 35.075 
21 *187:158 *1327:C 23 
22 *187:12 *1451:B 40.9621 
*END

*D_NET *188 0.0493496
*CONN
*I *1327:B I *D sky130_fd_sc_hd__and3_2
*I *1459:A1 I *D sky130_fd_sc_hd__a21boi_2
*I *1336:B1 I *D sky130_fd_sc_hd__a21oi_1
*I *1457:B I *D sky130_fd_sc_hd__or3_1
*I *1330:B I *D sky130_fd_sc_hd__nor2_2
*I *1451:A_N I *D sky130_fd_sc_hd__and3b_1
*I *1452:A2 I *D sky130_fd_sc_hd__a2111o_2
*I *1524:Q O *D sky130_fd_sc_hd__dfrtp_4
*CAP
1 *1327:B 0
2 *1459:A1 9.55232e-05
3 *1336:B1 1.10877e-05
4 *1457:B 0
5 *1330:B 0
6 *1451:A_N 0.000196651
7 *1452:A2 0
8 *1524:Q 0.000102705
9 *188:116 0.00172172
10 *188:90 0.0019309
11 *188:88 0.00191981
12 *188:81 0.00142321
13 *188:65 0.00262733
14 *188:59 0.0017514
15 *188:50 4.10996e-05
16 *188:37 0.00096279
17 *188:31 0.00214097
18 *188:29 0.00151859
19 *188:21 0.00351965
20 *188:12 0.000933549
21 *188:8 0.00227977
22 *1451:A_N *213:25 0.000658924
23 *1459:A1 *203:62 0.000178517
24 *1459:A1 *226:71 9.41704e-05
25 *188:21 *206:49 2.26406e-05
26 *188:29 *213:35 0
27 *188:31 *213:25 0.000290564
28 *188:37 *213:25 0.001293
29 *188:59 *208:108 0
30 *188:65 *203:27 0.000177604
31 *188:65 *208:41 9.02461e-05
32 *188:65 *218:70 0.000138145
33 *188:65 *221:10 0.00044574
34 *188:65 *222:38 0.000621818
35 *188:65 *226:16 0.000149884
36 *188:65 *226:27 0.000102449
37 *188:65 *226:71 2.65956e-05
38 *188:81 *190:22 0.000860366
39 *188:81 *208:14 9.91024e-05
40 *188:81 *208:41 0.000132311
41 *188:81 *216:40 0.000135037
42 *188:81 *218:26 0.000171564
43 *1365:A_N *1451:A_N 0.000917189
44 *1365:A_N *188:37 0.000348614
45 *1513:D *188:81 8.82053e-06
46 *1513:RESET_B *188:65 6.1083e-05
47 *1513:RESET_B *188:81 0.000206599
48 *1522:D *188:90 0.00031244
49 *22:12 *188:31 0.000658175
50 *38:14 *188:90 0
51 *39:22 *188:90 0.000105227
52 *47:28 *188:90 0.0012271
53 *48:16 *188:59 6.00121e-05
54 *48:16 *188:65 0.000553392
55 *50:30 *188:65 4.87865e-05
56 *52:26 *188:90 8.71386e-05
57 *54:18 *188:50 0
58 *57:14 *188:90 3.48712e-05
59 *66:14 *188:8 3.85021e-05
60 *68:24 *188:59 0
61 *70:16 *188:59 6.33121e-05
62 *76:50 *188:29 0.000139947
63 *84:6 *188:116 0.00132497
64 *84:57 *1459:A1 1.40958e-05
65 *86:10 *188:50 6.07397e-05
66 *93:14 *188:21 0.000939928
67 *93:18 *188:12 0.00201733
68 *93:18 *188:21 0.000165956
69 *98:35 *188:90 0.000152208
70 *102:16 *1336:B1 5.58003e-05
71 *104:37 *188:12 0.000131383
72 *107:46 *188:81 0.000401871
73 *109:28 *188:65 0.000538823
74 *109:28 *188:81 0.000383805
75 *110:10 *188:65 2.11066e-05
76 *132:14 *188:12 0.000447005
77 *134:79 *188:90 0.000125259
78 *138:10 *188:12 8.71517e-06
79 *142:26 *188:12 0.000881404
80 *142:26 *188:21 0.00102093
81 *143:14 *1336:B1 5.82853e-05
82 *147:72 *188:21 4.46759e-05
83 *147:82 *188:59 0.000713633
84 *147:82 *188:65 0.000178419
85 *149:44 *188:21 0.000464078
86 *170:16 *188:90 0.00280475
87 *170:70 *188:8 7.53384e-06
88 *175:51 *1459:A1 2.32101e-05
89 *175:62 *1451:A_N 0.000100488
90 *178:10 *188:81 3.85131e-05
91 *179:127 *188:21 6.75079e-05
92 *179:131 *188:29 0.000106001
93 *181:92 *188:29 0.00113226
94 *181:92 *188:116 0.000700429
95 *181:98 *188:116 0.000243215
96 *187:72 *188:90 0.000238668
*RES
1 *1524:Q *188:8 39.5743 
2 *188:8 *188:12 42.9643 
3 *188:12 *1452:A2 23 
4 *188:8 *188:21 46.8379 
5 *188:21 *188:29 44.0857 
6 *188:29 *188:31 13.485 
7 *188:31 *188:37 16.5093 
8 *188:37 *1451:A_N 33.15 
9 *188:37 *188:50 30.8493 
10 *188:50 *1330:B 23 
11 *188:31 *188:59 25.005 
12 *188:59 *188:65 45.0771 
13 *188:65 *188:81 30.0771 
14 *188:81 *1457:B 23 
15 *188:65 *188:88 15 
16 *188:88 *188:90 47.6843 
17 *188:90 *1336:B1 38.6214 
18 *188:59 *1459:A1 40.5479 
19 *188:21 *188:116 29.8493 
20 *188:116 *1327:B 23 
*END

*D_NET *189 0.0447925
*CONN
*I *1328:A I *D sky130_fd_sc_hd__nand2_1
*I *1455:B I *D sky130_fd_sc_hd__or3_1
*I *1333:B2 I *D sky130_fd_sc_hd__o2bb2a_1
*I *1452:A1 I *D sky130_fd_sc_hd__a2111o_2
*I *1331:A I *D sky130_fd_sc_hd__nand2_2
*I *1450:B I *D sky130_fd_sc_hd__nor2_2
*I *1525:Q O *D sky130_fd_sc_hd__dfrtp_4
*CAP
1 *1328:A 2.92191e-05
2 *1455:B 0
3 *1333:B2 0
4 *1452:A1 2.27923e-05
5 *1331:A 0
6 *1450:B 2.19126e-05
7 *1525:Q 0
8 *189:122 0.000503076
9 *189:114 0.000815881
10 *189:99 0.00220811
11 *189:95 0.00298039
12 *189:87 0.000488695
13 *189:85 0.000559588
14 *189:59 0.00176198
15 *189:47 0.00313584
16 *189:34 0.00150748
17 *189:32 0.00187068
18 *189:28 0.00235102
19 *189:26 0.00144209
20 *189:18 0.00126685
21 *189:6 0.000999199
22 *1450:B *1450:A 1.12349e-05
23 *189:18 *221:37 0.000357208
24 *189:26 *211:35 0
25 *189:28 *211:35 0.000211272
26 *189:32 *191:93 1.58805e-05
27 *189:34 *1372:B1 1.72202e-05
28 *189:34 *1450:A 3.22051e-05
29 *189:34 *191:66 8.53029e-05
30 *189:34 *191:82 0.000182826
31 *189:34 *220:12 0.000134074
32 *189:34 *220:55 0.000193249
33 *189:59 *195:14 0.000316711
34 *189:85 *211:35 0.000100519
35 *189:95 *1338:A1 6.37748e-05
36 *189:95 *206:16 0.000323882
37 *189:95 *206:24 0.000214494
38 *189:99 *226:71 0.000104329
39 *189:114 *1357:A 9.28078e-06
40 *189:114 *198:10 9.17998e-05
41 *189:114 *203:62 6.24251e-05
42 *189:114 *206:16 7.34101e-05
43 *189:122 *205:52 7.17698e-05
44 *189:122 *213:35 0.000437695
45 *1333:B1 *189:99 7.28721e-05
46 *1338:A2 *189:95 9.41704e-05
47 *1384:A *189:34 0.00171032
48 *1440:B2 *189:59 8.85386e-05
49 *1440:C1 *189:59 5.3304e-05
50 *1459:B1_N *189:85 9.28078e-06
51 *1512:RESET_B *189:122 5.02669e-05
52 *22:20 *189:85 1.8904e-05
53 *22:20 *189:114 8.65323e-05
54 *30:6 *189:95 0.000123287
55 *49:12 *189:26 0.000318829
56 *51:8 *189:59 2.89209e-05
57 *64:8 *189:122 0.000213628
58 *69:10 *189:95 0.000526863
59 *69:10 *189:114 8.13127e-05
60 *78:10 *189:18 0.000272074
61 *78:10 *189:85 2.96406e-05
62 *84:47 *189:114 8.48502e-06
63 *84:57 *189:99 0.00170489
64 *84:57 *189:114 2.64616e-05
65 *85:10 *189:18 0.000578014
66 *85:10 *189:85 0.000549214
67 *85:20 *189:28 0.000848569
68 *85:20 *189:32 0.000356535
69 *85:33 *189:18 0.000358904
70 *87:51 *189:85 0.000251677
71 *88:24 *189:99 3.70071e-06
72 *88:64 *189:26 0.000316338
73 *89:12 *189:99 2.93845e-05
74 *91:22 *189:28 0
75 *91:22 *189:32 0
76 *92:8 *1328:A 4.5051e-05
77 *92:8 *189:95 5.67058e-05
78 *93:18 *1452:A1 5.15096e-05
79 *93:18 *189:59 0.000138708
80 *95:12 *189:34 0.00201363
81 *95:64 *189:34 0.00182906
82 *95:68 *189:34 5.3304e-05
83 *95:79 *189:34 0.000478316
84 *104:16 *189:59 1.74872e-05
85 *104:37 *189:59 1.02219e-05
86 *115:95 *189:59 1.01436e-05
87 *119:8 *189:34 4.21378e-05
88 *137:18 *189:32 0.000257019
89 *156:10 *189:28 0
90 *156:31 *189:18 9.9699e-06
91 *156:31 *189:26 0.000994723
92 *167:26 *189:59 0.00121108
93 *168:40 *1452:A1 6.16531e-05
94 *168:40 *189:59 0.000155266
95 *171:10 *189:32 0
96 *175:51 *189:99 0.000248863
97 *176:43 *189:47 0.0017549
98 *177:10 *189:122 0.0001262
99 *177:14 *189:122 0.000151549
100 *179:24 *189:34 0.000474118
101 *180:70 *189:85 4.67488e-05
102 *180:137 *189:122 0.000271909
103 *181:75 *189:114 9.22483e-05
104 *182:12 *189:18 2.05503e-05
105 *186:8 *189:114 0.000139352
106 *187:111 *189:95 8.48502e-06
107 *187:128 *1328:A 9.75779e-05
108 *187:128 *189:95 2.18506e-05
109 *187:145 *189:122 1.59094e-05
*RES
1 *1525:Q *189:6 38 
2 *189:6 *189:18 43.3193 
3 *189:18 *189:26 47.7107 
4 *189:26 *189:28 12.1179 
5 *189:28 *189:32 22.54 
6 *189:32 *189:34 49.6936 
7 *189:34 *1450:B 23.4971 
8 *189:28 *189:47 49.6786 
9 *189:47 *189:59 44.9736 
10 *189:59 *1331:A 23 
11 *189:47 *1452:A1 38.8493 
12 *189:6 *189:85 40.4607 
13 *189:85 *189:87 15 
14 *189:87 *189:95 26.5171 
15 *189:95 *189:99 45.6364 
16 *189:99 *1333:B2 23 
17 *189:95 *189:114 37.1671 
18 *189:114 *189:122 28.5264 
19 *189:122 *1455:B 23 
20 *189:87 *1328:A 24.0979 
*END

*D_NET *190 0.0429691
*CONN
*I *1330:A I *D sky130_fd_sc_hd__nor2_2
*I *1452:D1 I *D sky130_fd_sc_hd__a2111o_2
*I *1329:A I *D sky130_fd_sc_hd__xnor2_1
*I *1455:A I *D sky130_fd_sc_hd__or3_1
*I *1457:A I *D sky130_fd_sc_hd__or3_1
*I *1450:A I *D sky130_fd_sc_hd__nor2_2
*I *1526:Q O *D sky130_fd_sc_hd__dfrtp_4
*CAP
1 *1330:A 0
2 *1452:D1 0
3 *1329:A 2.52923e-05
4 *1455:A 0.000117814
5 *1457:A 0
6 *1450:A 0.00021989
7 *1526:Q 7.25029e-05
8 *190:115 0.000992418
9 *190:109 0.00107022
10 *190:103 0.000913226
11 *190:86 0.001073
12 *190:73 0.00125373
13 *190:62 0.00134542
14 *190:58 0.00236441
15 *190:48 0.00302866
16 *190:28 0.00107935
17 *190:26 0.00143815
18 *190:22 0.00156546
19 *190:8 0.00227114
20 *190:22 *215:31 0.000187573
21 *190:28 *199:68 2.85808e-05
22 *190:28 *209:14 0.000814677
23 *190:28 *219:16 0.000530273
24 *190:58 *202:57 6.10781e-05
25 *190:58 *221:37 0.000167892
26 *190:62 *207:73 0.000105905
27 *190:62 *224:14 7.78047e-05
28 *190:62 *224:100 0.000185134
29 *190:73 *221:37 1.21972e-05
30 *190:86 *1347:D 0.000119424
31 *190:86 *195:10 9.4537e-06
32 *190:86 *195:33 8.86555e-06
33 *190:86 *203:10 0.000294817
34 *190:86 *205:10 0.000433919
35 *190:86 *221:37 0.000119761
36 *190:103 *202:57 6.83466e-05
37 *190:103 *208:41 0.000331912
38 *190:103 *210:56 0.000304134
39 *190:103 *221:8 0.000105849
40 *190:109 *224:18 0.000219383
41 *190:115 *202:42 5.14813e-05
42 *190:115 *213:25 0.000277792
43 *231:DIODE *190:26 0.000144501
44 *1450:B *1450:A 1.12349e-05
45 *1457:C *190:22 0.000304686
46 *1526:CLK *190:48 9.02048e-05
47 *1531:A *190:62 4.60157e-05
48 *25:16 *190:28 0.00093419
49 *33:16 *190:115 0.00131223
50 *40:26 *190:62 0.000595151
51 *51:8 *190:86 0.00178551
52 *67:10 *190:62 0.000647564
53 *68:16 *190:58 4.95487e-06
54 *68:24 *190:58 1.14977e-05
55 *76:42 *1455:A 0.000215491
56 *77:14 *190:62 0
57 *80:14 *190:109 0.000221084
58 *83:8 *190:48 2.98041e-05
59 *83:8 *190:58 0.0023166
60 *83:8 *190:73 8.6949e-05
61 *84:78 *190:62 0.00054021
62 *85:33 *190:58 0.000791524
63 *85:33 *190:73 0.000116554
64 *86:10 *190:115 0
65 *95:47 *190:115 0.00169722
66 *95:98 *190:86 0
67 *107:46 *190:22 0.000411542
68 *107:46 *190:26 0.000762505
69 *113:26 *190:115 0.000530446
70 *149:14 *190:62 0.000132424
71 *153:10 *190:103 0.000301852
72 *159:14 *190:58 6.71859e-05
73 *159:14 *190:103 0.000486051
74 *160:33 *190:48 9.41704e-05
75 *170:58 *190:103 0.000261458
76 *175:8 *1450:A 9.46082e-05
77 *175:12 *190:28 0.00237146
78 *175:22 *190:22 5.50049e-05
79 *175:34 *190:22 0.000185342
80 *176:12 *190:22 0.000126914
81 *178:10 *190:26 0.000139352
82 *179:110 *190:62 0.000242554
83 *180:44 *190:86 0.000156083
84 *187:145 *1455:A 5.50049e-05
85 *187:152 *1455:A 0.000352426
86 *188:81 *190:22 0.000860366
87 *189:34 *1450:A 3.22051e-05
*RES
1 *1526:Q *190:8 24.4707 
2 *190:8 *190:22 49.6164 
3 *190:22 *190:26 26.5793 
4 *190:26 *190:28 37.12 
5 *190:28 *1450:A 41.9771 
6 *190:22 *1457:A 23 
7 *190:8 *190:48 29.4379 
8 *190:48 *190:58 43.1921 
9 *190:58 *190:62 44.0207 
10 *190:62 *1455:A 42.4329 
11 *190:58 *190:73 3.00357 
12 *190:73 *1329:A 23.4971 
13 *190:73 *190:86 42.7986 
14 *190:86 *1452:D1 38 
15 *190:48 *190:103 46.5921 
16 *190:103 *190:109 32.5271 
17 *190:109 *190:115 43.1507 
18 *190:115 *1330:A 23 
*END

*D_NET *191 0.0403273
*CONN
*I *1493:A I *D sky130_fd_sc_hd__inv_2
*I *1471:A I *D sky130_fd_sc_hd__buf_4
*I *1482:A I *D sky130_fd_sc_hd__clkbuf_8
*I *1494:A I *D sky130_fd_sc_hd__inv_2
*I *1460:A I *D sky130_fd_sc_hd__clkbuf_8
*I *1536:X O *D sky130_fd_sc_hd__clkbuf_4
*CAP
1 *1493:A 6.22913e-05
2 *1471:A 0
3 *1482:A 0
4 *1494:A 0.000742486
5 *1460:A 0
6 *1536:X 0.000867991
7 *191:93 0.000494882
8 *191:82 0.000921453
9 *191:66 0.0018286
10 *191:51 0.00150148
11 *191:43 0.00204191
12 *191:41 0.00173074
13 *191:30 0.00172378
14 *191:18 0.00340631
15 *191:14 0.00369767
16 *191:6 0.00208533
17 *1494:A *201:56 0.000404502
18 *191:6 *1434:A 0.0010214
19 *191:30 *226:16 0.000325121
20 *191:41 *214:24 9.41704e-05
21 *191:41 *220:77 0.000568453
22 *191:43 *220:66 0.000207219
23 *191:43 *220:77 0.00120597
24 *191:51 *1382:A 0.000215501
25 *191:51 *201:56 1.9727e-05
26 *191:51 *220:66 8.72173e-05
27 *191:51 *224:71 1.0092e-05
28 *191:66 *207:114 0.000175985
29 *1383:C *191:30 5.33861e-05
30 *1401:A *1494:A 0.000228909
31 *1420:A1 *191:43 9.8966e-05
32 *1420:A2 *191:43 9.48701e-05
33 *1425:A *191:82 1.14154e-05
34 *1425:C *191:82 1.95448e-05
35 *1446:A *191:18 6.17437e-06
36 *1454:A2 *191:18 7.53384e-06
37 *1521:RESET_B *191:30 0.000818621
38 *1521:RESET_B *191:41 0.000805239
39 *24:10 *1493:A 5.25848e-05
40 *31:16 *191:93 0.000163352
41 *32:10 *191:14 0.00140417
42 *32:18 *191:14 0.000519487
43 *34:8 *191:14 1.51481e-05
44 *49:12 *1493:A 7.48505e-05
45 *52:10 *1494:A 0.000438874
46 *52:16 *1494:A 0.00114194
47 *52:18 *1494:A 1.56665e-05
48 *67:10 *191:41 0.000110373
49 *86:55 *191:18 0.000272523
50 *91:14 *191:93 1.14452e-05
51 *91:22 *191:93 0
52 *95:79 *191:43 0
53 *95:79 *191:51 0
54 *95:79 *191:66 0.000554759
55 *97:18 *191:51 0
56 *97:35 *191:51 2.64616e-05
57 *105:70 *191:18 0.00109022
58 *105:74 *191:18 0.000533957
59 *114:18 *191:14 0.00055883
60 *115:28 *191:82 0.000163045
61 *115:30 *191:82 0.000105328
62 *119:8 *191:66 0.00128637
63 *119:8 *191:82 0.000181125
64 *119:14 *191:66 0.000185428
65 *126:12 *191:51 0.000228233
66 *139:32 *1494:A 9.52618e-05
67 *143:14 *191:93 0
68 *146:20 *191:14 0.000228355
69 *149:14 *191:41 0.000202261
70 *149:14 *191:43 0.000375216
71 *158:10 *191:30 0.000327324
72 *164:8 *191:6 7.04466e-06
73 *166:10 *191:14 0.000287824
74 *171:10 *191:82 0.000332566
75 *171:10 *191:93 5.33213e-05
76 *174:30 *191:82 0.000334798
77 *174:30 *191:93 0
78 *176:27 *191:14 0.000296073
79 *180:25 *191:51 0.000100477
80 *180:27 *191:51 0.000283044
81 *181:12 *191:82 9.65021e-05
82 *181:31 *191:82 8.46778e-05
83 *187:89 *191:18 0.000219383
84 *189:32 *191:93 1.58805e-05
85 *189:34 *191:66 8.53029e-05
86 *189:34 *191:82 0.000182826
*RES
1 *1536:X *191:6 36.0086 
2 *191:6 *191:14 49.7171 
3 *191:14 *191:18 48.0186 
4 *191:18 *191:30 46.9443 
5 *191:30 *1460:A 23 
6 *191:30 *191:41 32.0893 
7 *191:41 *191:43 19.865 
8 *191:43 *191:51 31.0121 
9 *191:51 *1494:A 45.0607 
10 *191:43 *191:66 31.9857 
11 *191:66 *191:82 47.11 
12 *191:82 *1482:A 23 
13 *191:66 *191:93 38.9486 
14 *191:93 *1471:A 23 
15 *191:41 *1493:A 39.5743 
*END

*D_NET *192 0.0201205
*CONN
*I *1537:A I *D sky130_fd_sc_hd__buf_1
*I *1527:X O *D sky130_fd_sc_hd__buf_1
*CAP
1 *1537:A 0
2 *1527:X 0
3 *192:20 0.000864844
4 *192:16 0.00135543
5 *192:10 0.00232121
6 *192:8 0.00183062
7 *192:6 0.00413663
8 *192:4 0.00413663
9 *192:6 *195:33 0.000181285
10 *192:10 *198:18 0.000154377
11 *192:10 *208:75 0.000349386
12 *192:10 *226:60 0.000463479
13 *192:20 *214:8 0.000187931
14 *1520:RESET_B *192:10 0
15 *53:8 *192:10 0.000129024
16 *54:16 *192:6 0.00131147
17 *106:31 *192:10 0
18 *118:20 *192:6 0.00220912
19 *123:10 *192:20 0
20 *124:30 *192:20 0.000105668
21 *185:92 *192:10 0
22 *187:158 *192:10 0.0003834
*RES
1 *1527:X *192:4 23 
2 *192:4 *192:6 65.8921 
3 *192:6 *192:8 15 
4 *192:8 *192:10 38.8807 
5 *192:10 *192:16 37.7679 
6 *192:16 *192:20 31.6957 
7 *192:20 *1537:A 23 
*END

*D_NET *193 0.0233969
*CONN
*I *1538:A I *D sky130_fd_sc_hd__buf_1
*I *237:DIODE I *D sky130_fd_sc_hd__diode_2
*I *1453:Y O *D sky130_fd_sc_hd__nor2_1
*CAP
1 *1538:A 0.000460214
2 *237:DIODE 0
3 *1453:Y 9.60605e-05
4 *193:28 0.000519804
5 *193:22 0.00403376
6 *193:20 0.00409649
7 *193:14 0.00162854
8 *193:8 0.00160228
9 *193:14 *208:14 2.11066e-05
10 *193:22 *1428:A 0.000232125
11 *193:22 *220:20 0.000178227
12 *1428:B *193:22 5.64134e-05
13 *1453:B *193:8 4.67488e-05
14 *1486:A *193:22 4.39801e-05
15 *42:30 *193:14 0.00144235
16 *49:8 *193:28 0.000194027
17 *49:12 *1538:A 5.3304e-05
18 *60:18 *193:14 0
19 *71:6 *193:22 0.000361148
20 *80:14 *193:14 0.000531919
21 *88:12 *193:14 0.000994243
22 *97:61 *193:22 0.00014184
23 *103:63 *193:14 0.000655278
24 *105:49 *193:14 3.67392e-05
25 *105:66 *193:14 0.00026902
26 *148:16 *193:14 0.00017688
27 *160:6 *193:22 0.00228881
28 *165:43 *193:22 9.78729e-06
29 *165:51 *193:20 7.42224e-06
30 *165:51 *193:22 2.21004e-05
31 *168:26 *193:22 0.00088671
32 *177:20 *193:14 1.13589e-05
33 *179:93 *193:28 0.000196165
34 *181:141 *193:22 0.00208041
35 *183:51 *193:14 2.16255e-05
*RES
1 *1453:Y *193:8 39.0979 
2 *193:8 *193:14 38.0107 
3 *193:14 *193:20 16.595 
4 *193:20 *193:22 76.3736 
5 *193:22 *193:28 32.61 
6 *193:28 *237:DIODE 23 
7 *193:28 *1538:A 29.2557 
*END

*D_NET *194 0.0223634
*CONN
*I *1539:A I *D sky130_fd_sc_hd__buf_1
*I *1454:Y O *D sky130_fd_sc_hd__a21oi_1
*CAP
1 *1539:A 0
2 *1454:Y 0.00015843
3 *194:28 0.00233647
4 *194:24 0.00467117
5 *194:20 0.00373237
6 *194:12 0.00201602
7 *194:8 0.000776787
8 *194:12 *196:16 8.62825e-05
9 *194:20 *199:62 0.000104409
10 *194:20 *208:18 8.36198e-05
11 *194:24 *225:29 9.46658e-05
12 *194:28 *209:59 5.61255e-06
13 *1335:A *194:20 0.000292776
14 *1430:A *194:20 8.36198e-05
15 *1470:A *194:28 4.49877e-05
16 *47:47 *194:12 0.000160125
17 *47:51 *194:12 0.00027266
18 *47:73 *194:12 0.000533388
19 *57:8 *194:28 0.00115252
20 *57:14 *194:24 5.98842e-05
21 *57:14 *194:28 8.10962e-05
22 *76:12 *194:28 5.56279e-05
23 *86:55 *194:8 6.2618e-05
24 *94:10 *194:12 0.00071447
25 *97:55 *194:24 8.75163e-05
26 *110:30 *194:12 2.36931e-05
27 *111:8 *194:20 0.00102051
28 *130:10 *194:12 0
29 *159:30 *194:24 0.00064678
30 *179:18 *194:24 0.00136729
31 *179:52 *194:28 0.00163795
*RES
1 *1454:Y *194:8 40.0507 
2 *194:8 *194:12 32.0479 
3 *194:12 *194:20 49.4507 
4 *194:20 *194:24 31.61 
5 *194:24 *194:28 41.4907 
6 *194:28 *1539:A 23 
*END

*D_NET *195 0.0286172
*CONN
*I *1527:A I *D sky130_fd_sc_hd__buf_1
*I *1540:A I *D sky130_fd_sc_hd__buf_1
*I *1452:X O *D sky130_fd_sc_hd__a2111o_2
*CAP
1 *1527:A 0.000135492
2 *1540:A 0
3 *1452:X 0
4 *195:33 0.00940773
5 *195:14 0.00137496
6 *195:10 0.00149923
7 *195:6 0.00939651
8 *1527:A *207:44 8.53676e-05
9 *195:33 *205:10 0.000347901
10 *1378:A *195:14 2.93747e-05
11 *1440:B2 *195:14 0.000221084
12 *25:32 *195:33 0.000257123
13 *51:8 *195:10 0
14 *51:8 *195:33 0.000103193
15 *55:6 *195:33 0.00024288
16 *86:34 *195:33 1.92442e-05
17 *95:98 *195:10 0.000218371
18 *95:98 *195:33 4.51797e-05
19 *95:109 *195:33 0.000512876
20 *118:20 *195:33 0.000230637
21 *119:14 *195:33 0.000132567
22 *129:10 *195:33 0.00013262
23 *139:26 *195:33 0.000370761
24 *146:20 *195:33 0
25 *149:48 *195:33 0.000230637
26 *149:54 *1527:A 8.57188e-05
27 *154:14 *195:14 0.00162434
28 *168:40 *195:14 0.000995668
29 *169:34 *195:33 4.96824e-05
30 *180:44 *195:33 0.000111356
31 *186:59 *195:33 0.000130187
32 *186:78 *195:33 0.000110155
33 *189:59 *195:14 0.000316711
34 *190:86 *195:10 9.4537e-06
35 *190:86 *195:33 8.86555e-06
36 *192:6 *195:33 0.000181285
*RES
1 *1452:X *195:6 38 
2 *195:6 *195:10 17.9621 
3 *195:10 *195:14 33.3914 
4 *195:14 *1540:A 23 
5 *195:6 *195:33 45.0497 
6 *195:33 *1527:A 48.7861 
*END

*D_NET *196 0.0264778
*CONN
*I *1541:A I *D sky130_fd_sc_hd__buf_1
*I *1456:X O *D sky130_fd_sc_hd__buf_1
*CAP
1 *1541:A 0
2 *1456:X 0.000442175
3 *196:36 0.00722076
4 *196:28 0.00886408
5 *196:16 0.00265473
6 *196:10 0.0014536
7 *196:10 *218:20 0.000631938
8 *196:16 *200:110 0.000908689
9 *196:28 *218:34 0
10 *47:73 *196:16 0.00025759
11 *94:10 *196:10 0.000701847
12 *94:10 *196:16 0
13 *98:35 *196:36 0.000141923
14 *103:73 *196:28 0.000625885
15 *105:20 *196:36 0
16 *115:34 *196:28 0.000190572
17 *129:71 *196:16 0.00081323
18 *146:20 *196:16 0.000153401
19 *162:24 *196:36 0
20 *166:10 *196:10 0
21 *166:10 *196:16 0.00124795
22 *168:51 *196:10 1.21972e-05
23 *177:20 *196:10 5.14826e-05
24 *187:89 *196:16 1.94463e-05
25 *194:12 *196:16 8.62825e-05
*RES
1 *1456:X *196:10 49.1754 
2 *196:10 *196:16 44.9425 
3 *196:16 *196:28 45.8996 
4 *196:28 *196:36 37.3733 
5 *196:36 *1541:A 23 
*END

*D_NET *197 0.00864588
*CONN
*I *1542:A I *D sky130_fd_sc_hd__buf_1
*I *1458:X O *D sky130_fd_sc_hd__clkbuf_1
*CAP
1 *1542:A 0
2 *1458:X 0
3 *197:12 0.000337507
4 *197:6 0.00295813
5 *197:4 0.00262062
6 seg[5] *197:12 5.26945e-05
7 *179:60 *197:6 0.00267693
*RES
1 *1458:X *197:4 23 
2 *197:4 *197:6 52.0757 
3 *197:6 *197:12 36.4836 
4 *197:12 *1542:A 23 
*END

*D_NET *198 0.0236387
*CONN
*I *228:DIODE I *D sky130_fd_sc_hd__diode_2
*I *1543:A I *D sky130_fd_sc_hd__buf_1
*I *1459:Y O *D sky130_fd_sc_hd__a21boi_2
*CAP
1 *228:DIODE 0
2 *1543:A 0.000318135
3 *1459:Y 0.000239464
4 *198:26 0.000693619
5 *198:18 0.00275215
6 *198:16 0.00551943
7 *198:10 0.00338223
8 *198:10 *1357:A 4.5051e-05
9 *198:10 *199:27 0
10 *198:10 *205:44 5.50049e-05
11 *198:16 *219:14 0.00215904
12 *198:16 *219:44 0.000322842
13 *198:18 *208:86 0.00344195
14 *22:20 *198:10 6.79503e-05
15 *53:8 *198:18 0.000616956
16 *58:10 *198:18 0.00019737
17 *74:16 *198:18 0.000200735
18 *84:47 *198:10 0.000219383
19 *97:92 *198:18 0.00140386
20 *108:8 *198:10 9.67842e-05
21 *108:18 *198:10 0.000121648
22 *109:40 *198:18 0
23 *150:38 *198:16 0.000794431
24 *170:74 *198:18 9.76855e-06
25 *179:54 *198:18 0.00030467
26 *179:60 *198:18 0.000226051
27 *179:93 *198:18 0.000193604
28 *186:8 *198:10 1.03955e-05
29 *189:114 *198:10 9.17998e-05
30 *192:10 *198:18 0.000154377
*RES
1 *1459:Y *198:10 44.0382 
2 *198:10 *198:16 24.8144 
3 *198:16 *198:18 72.1271 
4 *198:18 *198:26 19.5054 
5 *198:26 *1543:A 29.1107 
6 *198:26 *228:DIODE 23 
*END

*D_NET *199 0.0398659
*CONN
*I *1364:A3 I *D sky130_fd_sc_hd__a31o_1
*I *1356:B I *D sky130_fd_sc_hd__nand2_1
*I *1361:A2 I *D sky130_fd_sc_hd__a21o_1
*I *1355:A I *D sky130_fd_sc_hd__nor2_1
*I *1342:D I *D sky130_fd_sc_hd__and4_4
*I *1360:C I *D sky130_fd_sc_hd__nand3_1
*I *1357:B I *D sky130_fd_sc_hd__or2_1
*I *1495:Q O *D sky130_fd_sc_hd__dfrtp_4
*CAP
1 *1364:A3 0.000372924
2 *1356:B 0
3 *1361:A2 0
4 *1355:A 0.000105578
5 *1342:D 0
6 *1360:C 4.21322e-05
7 *1357:B 5.02961e-05
8 *1495:Q 0
9 *199:120 0.000792416
10 *199:107 0.00155251
11 *199:99 0.0016706
12 *199:68 0.00106506
13 *199:62 0.00283342
14 *199:56 0.00194421
15 *199:48 0.00182482
16 *199:46 0.00205518
17 *199:42 0.00120081
18 *199:27 0.000420665
19 *199:12 0.000863725
20 *199:6 0.000586334
21 *1357:B *205:44 0.000320308
22 *1360:C *1360:B 1.75562e-05
23 *1360:C *210:89 6.07484e-05
24 *1360:C *218:82 1.83327e-05
25 *1364:A3 *1364:A2 0.00185386
26 *1364:A3 *219:48 0.00185386
27 *199:12 *203:62 0.000848093
28 *199:12 *204:24 2.11157e-05
29 *199:12 *205:44 0.000341958
30 *199:12 *207:26 8.95238e-05
31 *199:12 *225:41 0.000791132
32 *199:27 *210:89 9.67842e-05
33 *199:27 *218:82 8.48502e-06
34 *199:46 *210:62 0.000307948
35 *199:46 *211:27 1.22822e-05
36 *199:46 *218:70 0.000685259
37 *199:46 *226:33 0.000858051
38 *199:56 *210:52 7.29989e-05
39 *199:62 *1361:B1 0.000428832
40 *199:62 *210:33 7.13215e-05
41 *199:62 *210:52 1.10658e-05
42 *199:62 *218:30 0.000267511
43 *199:99 *204:24 0.000128291
44 *199:99 *218:82 0.000301116
45 *199:99 *225:41 0.000126192
46 *199:99 *226:33 0.000435371
47 *199:107 *1435:A 0.000132933
48 *199:107 *210:106 4.72363e-05
49 *199:120 *210:106 0.000403011
50 *1335:A *199:56 0.00038091
51 *1335:A *199:62 0.000155492
52 *1407:A *199:68 0.000583129
53 *1495:RESET_B *199:12 7.69793e-05
54 *1503:CLK *199:99 0.000100069
55 *1522:CLK *199:56 5.56356e-05
56 *25:16 *199:68 0.000108801
57 *39:22 *199:48 0.000331957
58 *70:16 *199:46 0.000512588
59 *84:12 *199:120 0.000212341
60 *84:37 *199:46 0.00044586
61 *87:32 *199:48 0.000108129
62 *95:8 *199:68 0
63 *97:69 *199:62 0.000326682
64 *103:47 *199:48 0.000116186
65 *107:10 *199:107 5.56356e-05
66 *107:10 *199:120 2.1819e-05
67 *108:18 *199:27 0
68 *108:18 *199:42 0
69 *111:8 *199:62 0.00102253
70 *133:10 *199:120 0.000212218
71 *153:10 *199:48 5.30673e-05
72 *156:39 *199:99 8.06804e-06
73 *156:56 *199:27 2.93431e-05
74 *156:56 *199:42 0.000132548
75 *156:56 *199:99 0.000469804
76 *163:48 *199:107 6.1789e-05
77 *170:14 *199:48 0.000488651
78 *170:16 *199:48 0.00193811
79 *175:12 *1355:A 0.000223805
80 *175:12 *199:68 0.00105555
81 *180:125 *199:12 6.93074e-06
82 *182:53 *199:48 0.000283801
83 *183:81 *199:48 0.000138718
84 *183:83 *199:48 0.000789677
85 *186:8 *1357:B 0.000191255
86 *186:89 *1357:B 0.000129054
87 *186:89 *199:12 0.000142173
88 *186:89 *199:27 9.1946e-06
89 *186:91 *199:27 3.91882e-05
90 *186:125 *199:107 2.79662e-05
91 *187:22 *199:48 0.000289833
92 *187:34 *199:48 0.000405536
93 *190:28 *199:68 2.85808e-05
94 *194:20 *199:62 0.000104409
95 *198:10 *199:27 0
*RES
1 *1495:Q *199:6 38 
2 *199:6 *199:12 32.4829 
3 *199:12 *1357:B 26.48 
4 *199:12 *199:27 34.06 
5 *199:27 *1360:C 24.1186 
6 *199:27 *199:42 32.61 
7 *199:42 *199:46 32.7729 
8 *199:46 *199:48 39.585 
9 *199:48 *199:56 21.0279 
10 *199:56 *199:62 49.4686 
11 *199:62 *199:68 42.0321 
12 *199:68 *1342:D 23 
13 *199:62 *1355:A 40.9621 
14 *199:56 *1361:A2 23 
15 *199:42 *199:99 42.6979 
16 *199:99 *199:107 14.6243 
17 *199:107 *1356:B 23 
18 *199:107 *199:120 39.3007 
19 *199:120 *1364:A3 43.6314 
*END

*D_NET *200 0.0363831
*CONN
*I *1392:A1 I *D sky130_fd_sc_hd__a21oi_1
*I *1393:B I *D sky130_fd_sc_hd__and3_2
*I *1388:A I *D sky130_fd_sc_hd__or2_1
*I *1389:A I *D sky130_fd_sc_hd__nand2_1
*I *1409:B I *D sky130_fd_sc_hd__and4_1
*I *1346:B I *D sky130_fd_sc_hd__or4_1
*I *1505:Q O *D sky130_fd_sc_hd__dfrtp_4
*CAP
1 *1392:A1 0
2 *1393:B 0
3 *1388:A 0
4 *1389:A 0
5 *1409:B 0
6 *1346:B 0
7 *1505:Q 0.00115477
8 *200:110 0.0011276
9 *200:97 0.00148174
10 *200:88 0.000285192
11 *200:75 0.000212602
12 *200:65 0.000526672
13 *200:63 0.00135509
14 *200:50 0.00144738
15 *200:46 0.00192109
16 *200:36 0.00189744
17 *200:30 0.00128438
18 *200:18 0.00271552
19 *200:6 0.00303756
20 *200:18 *203:77 0.000120919
21 *200:18 *209:39 2.047e-05
22 *200:18 *209:59 0.000125494
23 *200:18 *209:72 1.08929e-05
24 *200:30 *201:62 9.65021e-05
25 *200:30 *209:59 9.24177e-05
26 *200:50 *201:56 1.5725e-05
27 *200:63 *201:56 1.90277e-05
28 *200:63 *216:60 8.40585e-05
29 *200:63 *216:83 0.000161203
30 *200:63 *225:18 0.000319842
31 *200:65 *216:60 3.0918e-05
32 *200:75 *216:60 0.000174898
33 *200:88 *220:8 0
34 *200:97 *220:8 4.73626e-05
35 *1377:A *200:6 0.00052857
36 *1377:B *200:6 0.000612799
37 *1377:C *200:6 5.83345e-06
38 *1389:B *200:75 8.47785e-05
39 *1389:B *200:88 0
40 *1389:B *200:97 0
41 *1499:RESET_B *200:63 0.0012902
42 *1499:RESET_B *200:65 9.67842e-05
43 *1499:RESET_B *200:75 1.95618e-05
44 *32:6 *200:110 0.000263943
45 *47:47 *200:110 0.000150033
46 *47:51 *200:97 0.000427222
47 *47:51 *200:110 0.00127473
48 *52:18 *200:63 0.000102851
49 *52:26 *200:63 0.000703234
50 *66:8 *200:18 0.000163256
51 *76:18 *200:18 0.000921618
52 *86:34 *200:30 8.79918e-05
53 *91:14 *200:46 8.36198e-05
54 *97:35 *200:46 0.000133938
55 *98:35 *200:63 0.000484263
56 *99:10 *200:50 0.000394183
57 *99:14 *200:46 0.00128771
58 *100:14 *200:36 0.00106771
59 *102:16 *200:46 9.53319e-05
60 *105:30 *200:63 0.000303008
61 *110:30 *200:88 0
62 *123:6 *200:6 0.000465088
63 *124:30 *200:18 2.42178e-06
64 *129:24 *200:97 4.6318e-06
65 *129:24 *200:110 8.76402e-05
66 *129:30 *200:97 0
67 *129:71 *200:110 0.000164107
68 *133:8 *200:30 6.46936e-05
69 *133:10 *200:18 0
70 *133:10 *200:30 0
71 *134:73 *200:110 0.000231145
72 *138:14 *200:46 0.000844859
73 *139:26 *200:36 0.000516841
74 *139:32 *200:36 0.000323831
75 *143:8 *200:88 9.79925e-05
76 *145:12 *200:30 0.00057053
77 *146:20 *200:110 0.000179835
78 *165:18 *200:18 0.00113323
79 *174:38 *200:63 0.00015804
80 *178:18 *200:75 0.000171796
81 *180:12 *200:50 4.05745e-05
82 *183:12 *200:110 6.72393e-05
83 *196:16 *200:110 0.000908689
*RES
1 *1505:Q *200:6 47.9193 
2 *200:6 *200:18 48.9029 
3 *200:18 *200:30 43.2094 
4 *200:30 *200:36 44.5829 
5 *200:36 *200:46 43.1921 
6 *200:46 *200:50 21.3386 
7 *200:50 *1346:B 23 
8 *200:50 *200:63 31.175 
9 *200:63 *200:65 1.09786 
10 *200:65 *200:75 36.235 
11 *200:75 *1409:B 23 
12 *200:65 *200:88 34.4121 
13 *200:88 *1389:A 23 
14 *200:63 *200:97 22.8921 
15 *200:97 *1388:A 38 
16 *200:97 *200:110 41.8043 
17 *200:110 *1393:B 23 
18 *200:30 *1392:A1 23 
*END

*D_NET *201 0.0274003
*CONN
*I *1393:A I *D sky130_fd_sc_hd__and3_2
*I *1392:B1 I *D sky130_fd_sc_hd__a21oi_1
*I *1346:A I *D sky130_fd_sc_hd__or4_1
*I *1409:A I *D sky130_fd_sc_hd__and4_1
*I *1506:Q O *D sky130_fd_sc_hd__dfrtp_2
*CAP
1 *1393:A 4.93504e-05
2 *1392:B1 0
3 *1346:A 0
4 *1409:A 7.12945e-05
5 *1506:Q 0.000154464
6 *201:62 0.000638221
7 *201:56 0.00133387
8 *201:45 0.00108632
9 *201:37 0.00250813
10 *201:16 0.00292775
11 *201:14 0.00157488
12 *201:8 0.000941004
13 *1409:A *218:42 5.3304e-05
14 *201:14 *224:24 0.000226663
15 *201:37 *218:42 2.02872e-05
16 *201:45 *217:18 0
17 *201:56 *1382:A 0.000437567
18 *201:56 *1431:A 0.000567245
19 *201:56 *224:65 4.21362e-05
20 *1392:A2 *201:62 5.3304e-05
21 *1494:A *201:56 0.000404502
22 *25:16 *201:14 0.000119516
23 *25:16 *201:16 0.000121756
24 *36:12 *201:37 0.00127298
25 *36:12 *201:45 0.000396857
26 *36:18 *1409:A 6.16531e-05
27 *41:22 *201:16 0.000105425
28 *45:14 *201:14 0.00101774
29 *45:14 *201:16 0.00142275
30 *45:26 *201:14 0.000168335
31 *51:8 *201:62 0
32 *52:18 *201:56 0.00284308
33 *61:16 *201:45 0.000118879
34 *68:8 *201:45 5.67058e-05
35 *91:14 *201:56 0.000405204
36 *97:35 *201:56 5.3304e-05
37 *99:10 *201:56 1.47709e-05
38 *100:14 *201:62 0.00083528
39 *108:18 *201:14 0.000149254
40 *109:10 *201:14 0.000110267
41 *114:18 *201:8 9.6788e-06
42 *116:6 *201:62 2.23649e-05
43 *119:14 *201:62 0
44 *128:22 *201:37 0.000809792
45 *129:10 *201:62 1.83667e-05
46 *129:71 *1393:A 4.37838e-05
47 *133:8 *201:62 4.84129e-06
48 *134:12 *201:14 0.000977804
49 *134:73 *1393:A 3.04642e-05
50 *144:24 *1409:A 8.94487e-05
51 *144:24 *201:16 0.000130433
52 *178:14 *201:14 0.00108072
53 *178:14 *201:16 0.000730155
54 *178:18 *1409:A 1.22803e-05
55 *178:18 *201:16 0.000562472
56 *180:12 *201:56 0.000201502
57 *180:25 *201:56 0.000161149
58 *183:20 *201:16 0
59 *191:51 *201:56 1.9727e-05
60 *200:30 *201:62 9.65021e-05
61 *200:50 *201:56 1.5725e-05
62 *200:63 *201:56 1.90277e-05
*RES
1 *1506:Q *201:8 39.5743 
2 *201:8 *201:14 28.5029 
3 *201:14 *201:16 25.1471 
4 *201:16 *1409:A 39.8229 
5 *201:16 *201:37 47.2521 
6 *201:37 *201:45 37.7471 
7 *201:45 *1346:A 23 
8 *201:45 *201:56 47.0864 
9 *201:56 *201:62 28.4643 
10 *201:62 *1392:B1 23 
11 *201:14 *1393:A 39.1186 
*END

*D_NET *202 0.0281182
*CONN
*I *1399:A1 I *D sky130_fd_sc_hd__a21o_1
*I *1395:A I *D sky130_fd_sc_hd__or2_1
*I *1400:A I *D sky130_fd_sc_hd__nand3_2
*I *1396:A I *D sky130_fd_sc_hd__nand2_1
*I *1345:C I *D sky130_fd_sc_hd__and4_1
*I *1507:Q O *D sky130_fd_sc_hd__dfrtp_4
*CAP
1 *1399:A1 0.000265256
2 *1395:A 0
3 *1400:A 0
4 *1396:A 0.000115165
5 *1345:C 5.13899e-05
6 *1507:Q 2.21631e-05
7 *202:63 0.000660051
8 *202:57 0.00216647
9 *202:42 0.00201317
10 *202:16 0.000166555
11 *202:14 0.000811517
12 *202:10 0.00342462
13 *202:6 0.00186326
14 *1345:C *209:14 0.000199436
15 *1396:A *209:14 0.000374131
16 *1399:A1 *209:35 0.000633275
17 *1399:A1 *222:14 2.02872e-05
18 *202:10 *210:56 0.000410489
19 *202:10 *215:51 0.000588075
20 *202:14 *204:62 0.00303586
21 *202:14 *205:52 0.00299499
22 *202:57 *208:41 0.000781848
23 *202:63 *214:36 3.83778e-05
24 *1507:RESET_B *202:57 1.87537e-05
25 *1514:RESET_B *1399:A1 2.02872e-05
26 *22:26 *202:57 8.05098e-05
27 *30:10 *202:57 0.00122937
28 *30:10 *202:63 4.6318e-06
29 *33:16 *202:10 0.000221483
30 *33:16 *202:42 3.8796e-05
31 *38:14 *202:57 6.32792e-05
32 *38:14 *202:63 0.000386058
33 *47:28 *202:63 9.31237e-05
34 *57:14 *202:63 5.58003e-05
35 *68:16 *202:57 0
36 *113:26 *202:42 0.000125982
37 *134:35 *202:42 3.70187e-05
38 *134:47 *202:42 0.00217764
39 *134:79 *202:63 0.00027785
40 *134:94 *1399:A1 0.000551542
41 *134:94 *202:57 3.70187e-05
42 *134:94 *202:63 0.000416879
43 *136:8 *1345:C 0.000197145
44 *136:8 *1396:A 0.000324819
45 *147:96 *202:6 5.3304e-05
46 *147:96 *202:57 0.000180224
47 *153:10 *202:10 0.000186695
48 *153:10 *202:42 0.000158343
49 *159:30 *202:63 9.67908e-05
50 *180:70 *202:6 2.93845e-05
51 *180:70 *202:57 0.000238143
52 *190:58 *202:57 6.10781e-05
53 *190:103 *202:57 6.83466e-05
54 *190:115 *202:42 5.14813e-05
*RES
1 *1507:Q *202:6 23.6214 
2 *202:6 *202:10 29.935 
3 *202:10 *202:14 49.4479 
4 *202:14 *202:16 15 
5 *202:16 *1345:C 40.61 
6 *202:16 *1396:A 43.075 
7 *202:10 *202:42 48.7643 
8 *202:42 *1400:A 23 
9 *202:6 *202:57 43.8343 
10 *202:57 *202:63 31.2814 
11 *202:63 *1395:A 23 
12 *202:57 *1399:A1 45.7886 
*END

*D_NET *203 0.0337864
*CONN
*I *1347:B I *D sky130_fd_sc_hd__and4b_1
*I *1400:B I *D sky130_fd_sc_hd__nand3_2
*I *1345:D I *D sky130_fd_sc_hd__and4_1
*I *1399:B1 I *D sky130_fd_sc_hd__a21o_1
*I *1508:Q O *D sky130_fd_sc_hd__dfrtp_2
*CAP
1 *1347:B 0.000106905
2 *1400:B 0
3 *1345:D 0.000140951
4 *1399:B1 5.19607e-05
5 *1508:Q 0
6 *203:77 0.00111992
7 *203:62 0.00155897
8 *203:47 0.00143507
9 *203:39 0.00299634
10 *203:33 0.00326118
11 *203:31 0.000847533
12 *203:27 0.00159173
13 *203:12 0.00148663
14 *203:10 0.000803083
15 *203:4 0.00112562
16 *1345:D *204:70 5.56356e-05
17 *1347:B *209:59 6.17437e-06
18 *1399:B1 *209:35 4.34876e-05
19 *1399:B1 *222:14 0.000136738
20 *203:10 *205:10 0.000292585
21 *203:12 *222:14 0.00207146
22 *203:27 *206:24 9.58714e-05
23 *203:27 *217:10 0.000233558
24 *203:31 *1427:A 0.000185325
25 *203:31 *211:10 0.000512883
26 *203:39 *226:71 0.00110742
27 *203:47 *204:62 0.000150621
28 *203:47 *205:58 0.000112303
29 *203:62 *226:71 7.93878e-05
30 *203:77 *1347:C 0
31 *203:77 *209:59 0.000559794
32 *1459:A1 *203:62 0.000178517
33 *1495:RESET_B *203:62 0.000645693
34 *1513:RESET_B *203:27 0.000278727
35 *23:14 *203:27 1.13579e-05
36 *23:20 *203:31 0.00082347
37 *28:12 *203:47 0.00115787
38 *43:14 *203:77 0.000689371
39 *48:16 *203:31 0.00010989
40 *57:8 *1347:B 4.64347e-05
41 *62:8 *203:39 4.08537e-05
42 *68:24 *203:31 0.000374006
43 *70:16 *203:31 0.000466244
44 *84:57 *203:62 5.61255e-06
45 *85:10 *203:27 0.000180038
46 *85:20 *203:27 0.000333187
47 *87:22 *203:27 0.000114862
48 *88:60 *203:31 0.000187397
49 *98:6 *1345:D 5.26564e-05
50 *109:28 *203:27 0.000217834
51 *109:38 *203:27 0.00016956
52 *138:6 *1399:B1 5.50106e-05
53 *138:6 *203:12 0.00168691
54 *145:12 *203:77 0.00023273
55 *155:18 *203:12 0.000187062
56 *156:39 *203:31 0.00016124
57 *164:10 *203:47 2.67179e-05
58 *165:18 *203:77 0.0001619
59 *165:32 *203:77 0
60 *171:10 *203:27 0.000329218
61 *180:125 *203:62 4.82772e-05
62 *181:141 *203:77 0.000254788
63 *184:38 *203:39 3.83778e-05
64 *186:8 *203:62 0.0005717
65 *186:89 *203:62 0.000275873
66 *188:65 *203:27 0.000177604
67 *189:114 *203:62 6.24251e-05
68 *190:86 *203:10 0.000294817
69 *199:12 *203:62 0.000848093
70 *200:18 *203:77 0.000120919
*RES
1 *1508:Q *203:4 23 
2 *203:4 *203:10 34.0186 
3 *203:10 *203:12 23.49 
4 *203:12 *1399:B1 24.5743 
5 *203:12 *203:27 48.3529 
6 *203:27 *203:31 38.7386 
7 *203:31 *203:33 15 
8 *203:33 *203:39 39.215 
9 *203:39 *203:47 49.3264 
10 *203:47 *1345:D 40.5271 
11 *203:33 *203:62 42.5293 
12 *203:62 *1400:B 38 
13 *203:4 *203:77 49.1814 
14 *203:77 *1347:B 24.5743 
*END

*D_NET *204 0.0290997
*CONN
*I *1345:B I *D sky130_fd_sc_hd__and4_1
*I *1347:C I *D sky130_fd_sc_hd__and4b_1
*I *1403:A I *D sky130_fd_sc_hd__inv_2
*I *1509:Q O *D sky130_fd_sc_hd__dfrtp_2
*CAP
1 *1345:B 0
2 *1347:C 0.000160999
3 *1403:A 0
4 *1509:Q 5.67095e-05
5 *204:70 0.000106215
6 *204:62 0.00128408
7 *204:60 0.00117786
8 *204:47 0.00148926
9 *204:39 0.00233205
10 *204:24 0.00253446
11 *204:10 0.00212428
12 *204:8 0.000650314
13 *204:10 *206:14 0.00017208
14 *204:10 *206:16 0.000975839
15 *204:10 *207:36 0
16 *204:24 *206:16 0.000191685
17 *204:24 *210:89 0.000113633
18 *204:24 *211:59 0.000139352
19 *204:24 *212:36 4.74355e-05
20 *204:24 *225:35 0.000317341
21 *204:24 *225:41 0.000154807
22 *204:39 *208:61 0.000591496
23 *204:39 *211:59 5.67058e-05
24 *204:39 *212:36 0.00010323
25 *204:39 *216:18 4.05745e-05
26 *204:62 *205:52 0.000557185
27 *204:70 *205:58 0.000165003
28 *1345:D *204:70 5.56356e-05
29 *1463:A *204:39 2.64616e-05
30 *1495:RESET_B *204:24 0.000334924
31 *1510:RESET_B *204:47 0.000218284
32 *28:12 *204:62 0.000911176
33 *37:22 *204:47 0.000915601
34 *76:28 *204:47 0
35 *96:12 *204:47 0.00112867
36 *96:19 *204:47 0.000969712
37 *120:46 *204:39 0.000646376
38 *136:8 *204:70 0.000167275
39 *141:35 *204:39 0.000382849
40 *142:26 *204:39 0.000161121
41 *147:82 *204:10 0.000461371
42 *147:82 *204:24 8.60224e-05
43 *150:38 *204:24 0.00124984
44 *165:18 *204:47 0
45 *165:32 *1347:C 0
46 *165:32 *204:47 3.70292e-05
47 *179:110 *204:39 4.85126e-05
48 *179:127 *204:39 6.25829e-05
49 *180:125 *204:24 0.000537244
50 *186:59 *204:8 1.59094e-05
51 *187:18 *204:62 0.00180462
52 *199:12 *204:24 2.11157e-05
53 *199:99 *204:24 0.000128291
54 *202:14 *204:62 0.00303586
55 *203:47 *204:62 0.000150621
56 *203:77 *1347:C 0
*RES
1 *1509:Q *204:8 38.6214 
2 *204:8 *204:10 15.9914 
3 *204:10 *204:24 49.4103 
4 *204:24 *1403:A 23 
5 *204:24 *204:39 49.2229 
6 *204:39 *204:47 49.7171 
7 *204:47 *1347:C 40.2993 
8 *204:10 *204:60 15 
9 *204:60 *204:62 44.9293 
10 *204:62 *204:70 32.8793 
11 *204:70 *1345:B 23 
*END

*D_NET *205 0.0284883
*CONN
*I *1345:A I *D sky130_fd_sc_hd__and4_1
*I *1408:A I *D sky130_fd_sc_hd__inv_2
*I *1347:D I *D sky130_fd_sc_hd__and4b_1
*I *1510:Q O *D sky130_fd_sc_hd__dfrtp_2
*CAP
1 *1345:A 0
2 *1408:A 0.000374171
3 *1347:D 0.0004552
4 *1510:Q 4.25104e-05
5 *205:58 0.000146744
6 *205:52 0.00358162
7 *205:50 0.00364638
8 *205:44 0.00169255
9 *205:10 0.00253544
10 *205:8 0.00322962
11 *205:10 *213:54 6.26298e-05
12 *205:10 *223:31 0.000185268
13 *205:44 *1357:A 5.50106e-05
14 *205:44 *207:73 0.00030373
15 *1357:B *205:44 0.000320308
16 *1510:RESET_B *205:44 0.000177514
17 *1511:RESET_B *205:50 1.0092e-05
18 *1512:CLK *205:52 9.67908e-05
19 *22:20 *205:50 0.000282158
20 *26:20 *205:8 5.50049e-05
21 *26:20 *205:44 0.000181807
22 *28:12 *205:52 5.61255e-06
23 *50:8 *205:10 0.000160182
24 *51:8 *205:10 0.000213134
25 *57:8 *1347:D 0.000191475
26 *65:10 *205:50 0
27 *95:98 *1347:D 0.000105496
28 *95:109 *1347:D 1.16455e-05
29 *95:109 *205:10 0.00114211
30 *95:109 *205:44 1.96391e-05
31 *97:10 *1408:A 0.000938253
32 *108:8 *205:44 2.02872e-05
33 *132:14 *1347:D 0.00022034
34 *136:8 *205:58 4.68995e-05
35 *141:43 *205:10 0.000613634
36 *141:43 *205:44 8.35537e-05
37 *145:6 *1408:A 0.000465342
38 *147:72 *205:44 0
39 *148:10 *205:10 9.85586e-06
40 *164:10 *205:58 0
41 *168:32 *1408:A 1.21972e-05
42 *177:14 *205:52 1.0119e-05
43 *180:44 *205:10 0.000853599
44 *186:8 *205:44 4.18888e-05
45 *186:117 *205:44 0.000396475
46 *189:122 *205:52 7.17698e-05
47 *190:86 *1347:D 0.000119424
48 *190:86 *205:10 0.000433919
49 *195:33 *205:10 0.000347901
50 *198:10 *205:44 5.50049e-05
51 *199:12 *205:44 0.000341958
52 *202:14 *205:52 0.00299499
53 *203:10 *205:10 0.000292585
54 *203:47 *205:58 0.000112303
55 *204:62 *205:52 0.000557185
56 *204:70 *205:58 0.000165003
*RES
1 *1510:Q *205:8 38.6214 
2 *205:8 *205:10 44.1629 
3 *205:10 *1347:D 47.0884 
4 *205:10 *1408:A 48.6264 
5 *205:8 *205:44 40.7893 
6 *205:44 *205:50 34.0186 
7 *205:50 *205:52 49.6936 
8 *205:52 *205:58 33.6664 
9 *205:58 *1345:A 23 
*END

*D_NET *206 0.0360748
*CONN
*I *1419:A2 I *D sky130_fd_sc_hd__a31o_1
*I *1421:A3 I *D sky130_fd_sc_hd__a41o_1
*I *1422:D I *D sky130_fd_sc_hd__and4_2
*I *1412:A I *D sky130_fd_sc_hd__or2_1
*I *1413:A I *D sky130_fd_sc_hd__nand2_2
*I *1348:B I *D sky130_fd_sc_hd__and4b_1
*I *1511:Q O *D sky130_fd_sc_hd__dfrtp_4
*CAP
1 *1419:A2 9.48756e-05
2 *1421:A3 0
3 *1422:D 0.000112119
4 *1412:A 0
5 *1413:A 0
6 *1348:B 0
7 *1511:Q 0.000271603
8 *206:82 0.000453389
9 *206:69 0.000946135
10 *206:58 0.000486998
11 *206:49 0.00133714
12 *206:34 0.000512103
13 *206:26 0.00252396
14 *206:24 0.00274671
15 *206:16 0.00281978
16 *206:14 0.00122063
17 *1419:A2 *207:26 2.32004e-05
18 *1422:D *1422:C 3.83778e-05
19 *1422:D *207:81 1.12487e-05
20 *206:16 *226:27 1.6873e-05
21 *206:16 *226:71 0.000164181
22 *206:24 *226:16 0.000822596
23 *206:24 *226:27 0.000115812
24 *206:26 *226:80 0.00186189
25 *206:34 *1348:D 0.000131841
26 *206:34 *207:126 0.00110009
27 *206:49 *210:89 0.000585152
28 *206:49 *219:14 0.000299463
29 *206:58 *218:88 0.000262858
30 *206:69 *218:88 0.00107309
31 *206:82 *1421:A2 4.05745e-05
32 *206:82 *207:100 4.05745e-05
33 *206:82 *209:89 0.00111672
34 *1513:RESET_B *206:24 9.41704e-05
35 *47:24 *206:16 7.40619e-05
36 *47:93 *1422:D 0.000163352
37 *47:93 *206:69 0.000247678
38 *54:6 *206:14 0.000269781
39 *54:12 *206:14 3.70094e-05
40 *61:12 *206:26 1.17235e-05
41 *61:16 *206:26 0.000454139
42 *69:10 *206:14 4.6318e-06
43 *69:10 *206:16 0.00050421
44 *69:10 *206:24 0.00017947
45 *84:12 *1422:D 6.48142e-05
46 *84:12 *206:69 0.000238454
47 *87:22 *206:26 2.12988e-05
48 *93:14 *206:49 2.26406e-05
49 *97:61 *206:26 0.000113659
50 *100:18 *206:34 0.000523649
51 *101:12 *206:26 8.91804e-05
52 *101:12 *206:34 0
53 *107:20 *206:58 4.5051e-05
54 *147:57 *206:82 0.00111843
55 *147:66 *206:69 0.000991357
56 *147:68 *206:58 0.000181125
57 *147:68 *206:69 8.17328e-05
58 *147:76 *1419:A2 0.000137651
59 *147:82 *206:16 5.92738e-07
60 *148:14 *206:49 0.00226232
61 *149:12 *206:58 1.00493e-05
62 *153:8 *1419:A2 0.000139352
63 *158:10 *206:24 0.000582542
64 *158:10 *206:26 0.00228662
65 *179:163 *206:14 0.000143655
66 *180:12 *206:26 0.000367323
67 *181:52 *206:26 5.53554e-05
68 *181:58 *206:26 0.00116626
69 *186:47 *206:14 4.40479e-06
70 *186:59 *206:14 7.15126e-05
71 *186:78 *206:14 1.56762e-05
72 *188:21 *206:49 2.26406e-05
73 *189:95 *206:16 0.000323882
74 *189:95 *206:24 0.000214494
75 *189:114 *206:16 7.34101e-05
76 *203:27 *206:24 9.58714e-05
77 *204:10 *206:14 0.00017208
78 *204:10 *206:16 0.000975839
79 *204:24 *206:16 0.000191685
*RES
1 *1511:Q *206:14 45.2086 
2 *206:14 *206:16 21.8018 
3 *206:16 *206:24 48.3218 
4 *206:24 *206:26 52.2311 
5 *206:26 *206:34 30.5668 
6 *206:34 *1348:B 23 
7 *206:16 *206:49 35.7563 
8 *206:49 *1413:A 23 
9 *206:49 *206:58 3.50071 
10 *206:58 *1412:A 23 
11 *206:58 *206:69 30.37 
12 *206:69 *1422:D 40.2579 
13 *206:69 *206:82 30.3907 
14 *206:82 *1421:A3 23 
15 *206:14 *1419:A2 40.5479 
*END

*D_NET *207 0.0468958
*CONN
*I *1421:A2 I *D sky130_fd_sc_hd__a41o_1
*I *1418:B I *D sky130_fd_sc_hd__nand2_1
*I *1348:A_N I *D sky130_fd_sc_hd__and4b_1
*I *235:DIODE I *D sky130_fd_sc_hd__diode_2
*I *1422:C I *D sky130_fd_sc_hd__and4_2
*I *1419:A1 I *D sky130_fd_sc_hd__a31o_1
*I *1416:A I *D sky130_fd_sc_hd__xor2_1
*I *1341:A2 I *D sky130_fd_sc_hd__a21o_1
*I *1512:Q O *D sky130_fd_sc_hd__dfrtp_4
*CAP
1 *1421:A2 0.000530434
2 *1418:B 0.00073845
3 *1348:A_N 0
4 *235:DIODE 9.82292e-05
5 *1422:C 0.000106106
6 *1419:A1 0
7 *1416:A 0
8 *1341:A2 0
9 *1512:Q 0.000192812
10 *207:126 0.00128486
11 *207:122 0.00229119
12 *207:114 0.00231049
13 *207:110 0.00270784
14 *207:106 0.00170532
15 *207:100 0.00168274
16 *207:81 0.000392802
17 *207:79 0.00150261
18 *207:73 0.00223935
19 *207:46 0.000622315
20 *207:44 0.000940798
21 *207:36 0.00111238
22 *207:26 0.00216901
23 *207:16 0.00234667
24 *207:8 0.000351376
25 *1418:B *1418:A 6.00355e-05
26 *1421:A2 *209:89 0.00107324
27 *1422:C *1422:A 8.06804e-06
28 *1422:C *208:61 6.17437e-06
29 *1422:C *209:89 2.45549e-06
30 *207:8 *213:35 5.84798e-05
31 *207:16 *211:59 1.0092e-05
32 *207:16 *225:41 7.43426e-05
33 *207:26 *225:41 0.000357046
34 *207:36 *208:121 0
35 *207:46 *208:123 0.00153838
36 *207:73 *211:59 7.94737e-05
37 *207:73 *213:54 2.69859e-05
38 *207:73 *226:52 0.000110922
39 *207:100 *209:89 5.3304e-05
40 *207:106 *209:89 0.000219882
41 *207:106 *221:48 0.00123572
42 *207:114 *220:66 0.000611616
43 *207:122 *224:65 8.76131e-05
44 *1377:C *207:106 5.81707e-06
45 *1411:C1 *207:110 0.000450681
46 *1419:A2 *207:26 2.32004e-05
47 *1422:D *1422:C 3.83778e-05
48 *1422:D *207:81 1.12487e-05
49 *1423:B *207:126 5.56279e-05
50 *1469:A *207:26 0.000188927
51 *1495:RESET_B *207:8 0
52 *1503:RESET_B *207:26 0
53 *1509:RESET_B *207:36 0.000703059
54 *1509:RESET_B *207:44 9.88674e-05
55 *1510:CLK *207:73 2.81066e-05
56 *1527:A *207:44 8.53676e-05
57 *25:32 *207:44 0
58 *26:20 *207:73 6.17437e-06
59 *35:10 *207:106 0.000313085
60 *35:10 *207:110 4.45495e-05
61 *47:93 *207:106 0.000675869
62 *47:108 *207:110 0.000992374
63 *47:110 *207:110 0.000260783
64 *76:42 *207:26 0
65 *76:42 *207:73 0.00017238
66 *77:10 *207:16 0.000181692
67 *77:14 *207:73 0.000500805
68 *84:12 *207:81 0.000195238
69 *84:14 *207:100 5.50106e-05
70 *94:6 *207:46 0.000568243
71 *95:79 *207:114 0.000224654
72 *97:18 *207:122 0
73 *100:18 *207:126 0.000433836
74 *107:20 *207:79 0.000732747
75 *115:101 *1418:B 0.000222467
76 *115:101 *207:114 0.000834683
77 *118:20 *207:46 0.000800039
78 *119:14 *207:114 0.000112175
79 *122:10 *207:106 0.000134855
80 *133:10 *1422:C 8.71559e-05
81 *133:10 *207:81 0.000207543
82 *139:14 *207:26 0
83 *139:14 *207:73 6.14353e-05
84 *143:22 *207:122 0.000143869
85 *143:30 *207:122 0.000162786
86 *147:16 *207:106 0.000129568
87 *147:16 *207:110 0.000625014
88 *147:18 *207:110 0.000232591
89 *147:66 *207:79 0.000175404
90 *147:76 *207:26 0.000995836
91 *149:14 *207:73 8.35537e-05
92 *151:6 *207:44 5.56356e-05
93 *152:8 *1418:B 0.000183128
94 *153:8 *207:26 1.76557e-05
95 *154:8 *1421:A2 0.000528019
96 *155:34 *207:122 0.000348277
97 *163:12 *207:16 0.000352568
98 *179:131 *207:26 0
99 *179:148 *207:26 0.000236691
100 *180:125 *207:8 7.70499e-06
101 *180:137 *207:8 1.12148e-05
102 *186:59 *207:36 0.000105061
103 *186:117 *207:73 3.16665e-05
104 *187:145 *207:73 0.000166513
105 *190:62 *207:73 0.000105905
106 *191:66 *207:114 0.000175985
107 *199:12 *207:26 8.95238e-05
108 *204:10 *207:36 0
109 *205:44 *207:73 0.00030373
110 *206:34 *207:126 0.00110009
111 *206:82 *1421:A2 4.05745e-05
112 *206:82 *207:100 4.05745e-05
*RES
1 *1512:Q *207:8 40.9621 
2 *207:8 *207:16 34.9818 
3 *207:16 *207:26 44.0518 
4 *207:26 *207:36 43.3814 
5 *207:36 *207:44 35.8414 
6 *207:44 *207:46 29.6836 
7 *207:46 *1341:A2 23 
8 *207:36 *1416:A 23 
9 *207:26 *1419:A1 23 
10 *207:16 *207:73 47.8454 
11 *207:73 *207:79 49.2021 
12 *207:79 *207:81 2.96214 
13 *207:81 *1422:C 39.8229 
14 *207:81 *207:100 18.1693 
15 *207:100 *207:106 42.3532 
16 *207:106 *207:110 39.2668 
17 *207:110 *207:114 41.825 
18 *207:114 *207:122 34.2436 
19 *207:122 *207:126 26.8457 
20 *207:126 *235:DIODE 24.5743 
21 *207:126 *1348:A_N 23 
22 *207:110 *1418:B 36.5057 
23 *207:100 *1421:A2 36.5057 
*END

*D_NET *208 0.0516127
*CONN
*I *1341:A1 I *D sky130_fd_sc_hd__a21o_1
*I *1419:B1 I *D sky130_fd_sc_hd__a31o_1
*I *1422:B I *D sky130_fd_sc_hd__and4_2
*I *1418:A I *D sky130_fd_sc_hd__nand2_1
*I *1421:A1 I *D sky130_fd_sc_hd__a41o_1
*I *1348:D I *D sky130_fd_sc_hd__and4b_1
*I *1513:Q O *D sky130_fd_sc_hd__dfrtp_4
*CAP
1 *1341:A1 0
2 *1419:B1 0.000125641
3 *1422:B 0
4 *1418:A 9.34941e-05
5 *1421:A1 0
6 *1348:D 0.000244368
7 *1513:Q 0.00103911
8 *208:123 0.00242644
9 *208:121 0.00285467
10 *208:108 0.00198074
11 *208:86 0.00117041
12 *208:84 0.00122033
13 *208:75 0.000114068
14 *208:69 0.00146379
15 *208:61 0.00249115
16 *208:55 0.00273113
17 *208:41 0.00358408
18 *208:18 0.00233698
19 *208:16 0.00280354
20 *208:14 0.00103911
21 *208:18 *210:52 1.22143e-05
22 *208:18 *210:56 0.00106089
23 *208:18 *217:26 7.10001e-05
24 *208:18 *220:20 0.000268244
25 *208:41 *210:56 3.99618e-05
26 *208:55 *226:39 0.000153123
27 *208:61 *1422:A 4.96207e-05
28 *208:61 *212:36 0.000266898
29 *208:69 *209:72 0.000108681
30 *208:69 *216:18 0.000265964
31 *1418:B *1418:A 6.00355e-05
32 *1422:C *208:61 6.17437e-06
33 *1430:A *208:18 0.000210213
34 *1463:A *208:61 0.000131645
35 *1513:RESET_B *208:41 0.000427286
36 *1526:RESET_B *208:14 0
37 *30:10 *208:41 6.23986e-05
38 *30:10 *208:108 6.55525e-05
39 *40:26 *208:55 0.000886391
40 *45:26 *208:55 0.000528757
41 *47:26 *208:108 4.13019e-05
42 *47:28 *208:108 0.000255394
43 *47:93 *208:69 1.69668e-05
44 *49:20 *208:18 0.00236807
45 *50:30 *208:55 0.000882763
46 *53:8 *208:75 0.000354778
47 *53:12 *208:69 0.000221286
48 *53:12 *208:84 9.88574e-06
49 *60:18 *208:14 0.000360021
50 *68:24 *208:108 0.000964872
51 *88:50 *208:14 4.85862e-05
52 *94:6 *208:123 3.52233e-06
53 *100:18 *1348:D 0.00013014
54 *115:60 *208:18 0
55 *117:10 *208:41 0.000123361
56 *118:20 *208:123 5.25278e-05
57 *120:18 *208:61 9.58714e-05
58 *133:10 *208:69 0.000160906
59 *147:82 *208:108 0
60 *148:14 *208:55 9.21431e-05
61 *148:16 *208:14 9.33529e-06
62 *149:48 *208:123 0.000397782
63 *152:8 *1418:A 3.22879e-05
64 *153:8 *1419:B1 0.00010776
65 *153:10 *208:18 0.00114175
66 *153:10 *208:41 4.75766e-05
67 *153:10 *208:108 0
68 *158:18 *208:55 0.000147974
69 *159:14 *208:41 0.000210238
70 *159:14 *208:108 9.86551e-06
71 *179:54 *208:86 0.000850142
72 *179:78 *208:86 0.000210582
73 *179:93 *208:86 0.0019519
74 *182:34 *208:18 5.58873e-06
75 *183:83 *208:18 1.42872e-05
76 *186:59 *208:121 4.36401e-06
77 *187:44 *208:14 0.000301607
78 *187:89 *208:14 0
79 *188:59 *208:108 0
80 *188:65 *208:41 9.02461e-05
81 *188:81 *208:14 9.91024e-05
82 *188:81 *208:41 0.000132311
83 *190:103 *208:41 0.000331912
84 *192:10 *208:75 0.000349386
85 *193:14 *208:14 2.11066e-05
86 *194:20 *208:18 8.36198e-05
87 *198:18 *208:86 0.00344195
88 *202:57 *208:41 0.000781848
89 *204:39 *208:61 0.000591496
90 *206:34 *1348:D 0.000131841
91 *207:36 *208:121 0
92 *207:46 *208:123 0.00153838
*RES
1 *1513:Q *208:14 49.364 
2 *208:14 *208:16 8 
3 *208:16 *208:18 51.7029 
4 *208:18 *1348:D 42.1273 
5 *208:16 *208:41 48.5807 
6 *208:41 *208:55 37.4125 
7 *208:55 *208:61 22.7029 
8 *208:61 *208:69 47.1721 
9 *208:69 *208:75 34.7229 
10 *208:75 *1421:A1 23 
11 *208:69 *208:84 16.5743 
12 *208:84 *208:86 45.9236 
13 *208:86 *1418:A 40.0714 
14 *208:61 *1422:B 23 
15 *208:41 *208:108 27.4982 
16 *208:108 *1419:B1 41.0036 
17 *208:108 *208:121 21.4836 
18 *208:121 *208:123 39.6886 
19 *208:123 *1341:A1 23 
*END

*D_NET *209 0.0356471
*CONN
*I *1421:B1 I *D sky130_fd_sc_hd__a41o_1
*I *1422:A I *D sky130_fd_sc_hd__and4_2
*I *1347:A_N I *D sky130_fd_sc_hd__and4b_1
*I *1341:B1 I *D sky130_fd_sc_hd__a21o_1
*I *1514:Q O *D sky130_fd_sc_hd__dfrtp_4
*CAP
1 *1421:B1 0
2 *1422:A 6.41547e-05
3 *1347:A_N 0
4 *1341:B1 3.42813e-05
5 *1514:Q 0
6 *209:89 0.000426098
7 *209:72 0.00186522
8 *209:59 0.000670324
9 *209:39 0.00438655
10 *209:35 0.0040121
11 *209:14 0.00206691
12 *209:12 0.00383614
13 *209:4 0.00347435
14 *1422:A *212:36 0.000137361
15 *209:14 *219:16 0.00230343
16 *209:35 *214:28 0.00160404
17 *209:35 *222:14 2.25927e-05
18 *209:89 *212:36 0.00012692
19 *209:89 *221:48 1.12487e-05
20 *1345:C *209:14 0.000199436
21 *1347:B *209:59 6.17437e-06
22 *1396:A *209:14 0.000374131
23 *1399:A1 *209:35 0.000633275
24 *1399:B1 *209:35 4.34876e-05
25 *1421:A2 *209:89 0.00107324
26 *1422:C *1422:A 8.06804e-06
27 *1422:C *209:89 2.45549e-06
28 *1470:A *209:59 6.17437e-06
29 *1514:D *209:35 0.000303782
30 *1514:RESET_B *209:35 8.0381e-05
31 *1536:A *209:14 0.000101171
32 *42:16 *209:35 2.26497e-05
33 *47:73 *209:12 0.000482167
34 *47:93 *209:72 0.000864469
35 *47:93 *209:89 0.000249918
36 *57:8 *209:59 9.41704e-05
37 *76:12 *209:59 0.000175147
38 *76:18 *209:59 0.00059164
39 *82:18 *209:35 3.48912e-05
40 *86:22 *209:35 0.000122638
41 *94:6 *1341:B1 1.94812e-05
42 *103:47 *209:12 6.46983e-05
43 *103:47 *209:35 3.1516e-05
44 *124:30 *209:39 0
45 *133:10 *209:72 0.000768617
46 *136:8 *209:14 0.000149611
47 *138:6 *209:35 0.000734753
48 *145:12 *209:59 6.032e-05
49 *155:8 *209:89 2.45549e-06
50 *155:18 *209:35 4.15888e-05
51 *155:26 *209:35 1.07568e-05
52 *165:18 *209:59 3.78393e-05
53 *179:39 *209:59 3.37763e-05
54 *179:52 *209:59 2.93104e-06
55 *190:28 *209:14 0.000814677
56 *194:28 *209:59 5.61255e-06
57 *200:18 *209:39 2.047e-05
58 *200:18 *209:59 0.000125494
59 *200:18 *209:72 1.08929e-05
60 *200:30 *209:59 9.24177e-05
61 *203:77 *209:59 0.000559794
62 *206:82 *209:89 0.00111672
63 *207:100 *209:89 5.3304e-05
64 *207:106 *209:89 0.000219882
65 *208:61 *1422:A 4.96207e-05
66 *208:69 *209:72 0.000108681
*RES
1 *1514:Q *209:4 23 
2 *209:4 *209:12 42.8193 
3 *209:12 *209:14 56.1357 
4 *209:14 *1341:B1 38.6214 
5 *209:4 *209:35 49.6861 
6 *209:35 *209:39 12.3493 
7 *209:39 *209:59 39.7475 
8 *209:59 *1347:A_N 23 
9 *209:39 *209:72 48.3619 
10 *209:72 *1422:A 24.5743 
11 *209:72 *209:89 47.4207 
12 *209:89 *1421:B1 23 
*END

*D_NET *210 0.036652
*CONN
*I *1357:A I *D sky130_fd_sc_hd__or2_1
*I *1364:A2 I *D sky130_fd_sc_hd__a31o_1
*I *1356:A I *D sky130_fd_sc_hd__nand2_1
*I *1360:B I *D sky130_fd_sc_hd__nand3_1
*I *1361:A1 I *D sky130_fd_sc_hd__a21o_1
*I *1342:C I *D sky130_fd_sc_hd__and4_4
*I *1496:Q O *D sky130_fd_sc_hd__dfrtp_4
*CAP
1 *1357:A 0.000193927
2 *1364:A2 0.00069721
3 *1356:A 0
4 *1360:B 1.71133e-05
5 *1361:A1 0
6 *1342:C 0.000260182
7 *1496:Q 0.000276306
8 *210:106 0.00103756
9 *210:91 0.000340348
10 *210:89 0.00139369
11 *210:66 0.00151184
12 *210:62 0.0010725
13 *210:56 0.00217515
14 *210:52 0.00201606
15 *210:33 0.00100907
16 *210:29 0.00153535
17 *210:16 0.00146214
18 *210:10 0.00262299
19 *1360:B *218:82 1.09903e-05
20 *1364:A2 *219:48 0.000114656
21 *210:29 *214:42 0.000235078
22 *210:29 *215:8 0
23 *210:29 *216:42 0.000481649
24 *210:29 *218:26 3.673e-05
25 *210:33 *1361:B1 0.000441269
26 *210:33 *218:30 0.000265023
27 *210:52 *220:20 0.000132638
28 *210:56 *1369:A 6.56284e-05
29 *210:56 *215:51 7.80751e-05
30 *210:62 *211:27 0.000680374
31 *210:62 *218:70 6.64565e-05
32 *210:66 *218:72 0.000309622
33 *210:66 *218:82 1.59071e-05
34 *210:89 *218:82 1.83618e-05
35 *210:89 *219:14 0.00150742
36 *210:89 *219:44 0.000216019
37 *1360:C *1360:B 1.75562e-05
38 *1360:C *210:89 6.07484e-05
39 *1364:A3 *1364:A2 0.00185386
40 *1407:A *1342:C 0.000356799
41 *1430:A *210:52 0.000100159
42 *1445:B *210:10 4.58484e-05
43 *1445:B *210:16 0.000364803
44 *1459:B1_N *1357:A 0.000168066
45 *1459:B1_N *210:62 0.000233345
46 *1499:D *210:16 1.05658e-05
47 *1510:RESET_B *210:89 7.06542e-05
48 *1519:CLK *210:16 7.61229e-06
49 *1519:RESET_B *210:16 0.000227734
50 *1526:CLK *210:56 0.000184289
51 *22:20 *1357:A 5.59302e-05
52 *22:20 *210:62 9.2467e-06
53 *29:32 *210:52 0.000438541
54 *29:32 *210:56 1.48595e-06
55 *33:16 *210:56 1.19239e-05
56 *36:18 *210:16 0.000143924
57 *70:16 *210:62 0.000514289
58 *76:36 *210:106 6.87712e-05
59 *84:47 *1357:A 0.000136486
60 *84:47 *210:62 0.000207738
61 *88:50 *210:56 2.26406e-05
62 *94:20 *210:29 0
63 *96:19 *210:89 6.85548e-05
64 *97:69 *210:33 0.000308221
65 *105:30 *210:29 0.000837416
66 *105:45 *210:29 0.000666664
67 *105:96 *210:56 0.000173564
68 *110:10 *210:66 0.000309622
69 *112:18 *210:10 0.000414249
70 *113:6 *1364:A2 0.000679896
71 *125:24 *210:56 1.02032e-05
72 *133:10 *210:106 4.8984e-05
73 *144:16 *210:29 2.8241e-05
74 *148:14 *210:89 5.92908e-05
75 *148:16 *210:29 8.16558e-05
76 *150:38 *210:106 4.95356e-05
77 *153:10 *210:56 0.000374424
78 *155:63 *210:56 2.07444e-05
79 *156:56 *210:89 8.8085e-05
80 *163:48 *210:106 3.07875e-05
81 *165:8 *210:106 0.000185942
82 *170:30 *210:29 6.80547e-05
83 *178:22 *210:10 0.00011036
84 *180:125 *210:89 0.000118842
85 *181:75 *1357:A 3.19892e-06
86 *182:34 *210:52 2.47015e-05
87 *183:20 *210:16 0
88 *184:97 *210:56 0.000284427
89 *184:99 *210:56 0.000213059
90 *186:8 *1357:A 0.000136743
91 *189:114 *1357:A 9.28078e-06
92 *190:103 *210:56 0.000304134
93 *198:10 *1357:A 4.5051e-05
94 *199:27 *210:89 9.67842e-05
95 *199:46 *210:62 0.000307948
96 *199:56 *210:52 7.29989e-05
97 *199:62 *210:33 7.13215e-05
98 *199:62 *210:52 1.10658e-05
99 *199:107 *210:106 4.72363e-05
100 *199:120 *210:106 0.000403011
101 *202:10 *210:56 0.000410489
102 *204:24 *210:89 0.000113633
103 *205:44 *1357:A 5.50106e-05
104 *206:49 *210:89 0.000585152
105 *208:18 *210:52 1.22143e-05
106 *208:18 *210:56 0.00106089
107 *208:41 *210:56 3.99618e-05
*RES
1 *1496:Q *210:10 30.4571 
2 *210:10 *210:16 35.3207 
3 *210:16 *1342:C 41.9564 
4 *210:10 *210:29 42.9643 
5 *210:29 *210:33 24.1971 
6 *210:33 *1361:A1 23 
7 *210:33 *210:52 26.0718 
8 *210:52 *210:56 47.0139 
9 *210:56 *210:62 33.2286 
10 *210:62 *210:66 18.9564 
11 *210:66 *1360:B 23.4971 
12 *210:66 *210:89 43.0427 
13 *210:89 *210:91 15 
14 *210:91 *1356:A 23 
15 *210:91 *210:106 38.845 
16 *210:106 *1364:A2 46.0136 
17 *210:62 *1357:A 43.3029 
*END

*D_NET *211 0.0233116
*CONN
*I *1432:A I *D sky130_fd_sc_hd__and4_1
*I *1350:C I *D sky130_fd_sc_hd__and4_2
*I *1428:A I *D sky130_fd_sc_hd__nand2_1
*I *1427:A I *D sky130_fd_sc_hd__or2_1
*I *1515:Q O *D sky130_fd_sc_hd__dfrtp_1
*CAP
1 *1432:A 0.000911616
2 *1350:C 0
3 *1428:A 5.13181e-05
4 *1427:A 8.45197e-05
5 *1515:Q 0.000554809
6 *211:59 0.00164532
7 *211:46 0.00112155
8 *211:35 0.00173464
9 *211:27 0.00262549
10 *211:10 0.0012437
11 *211:8 0.00115966
12 *211:46 *1350:D 5.56279e-05
13 *211:59 *1350:B 0.000820532
14 *211:59 *212:36 7.44161e-06
15 *211:59 *213:35 0.000317201
16 *211:59 *225:35 4.99125e-06
17 *211:59 *225:41 5.24115e-05
18 *1339:A2 *211:59 0.000136705
19 *22:20 *211:27 0.000132422
20 *22:20 *211:35 3.41998e-06
21 *47:24 *211:8 0.000313785
22 *68:24 *1427:A 0.00018749
23 *68:24 *211:10 0.000420364
24 *70:16 *211:10 0.00016131
25 *76:68 *211:8 0.000265293
26 *77:10 *1432:A 0.000182673
27 *78:10 *211:35 0.0016086
28 *84:37 *211:27 7.44257e-05
29 *85:10 *211:35 2.0823e-05
30 *85:20 *211:35 1.97139e-05
31 *93:6 *1432:A 4.62036e-05
32 *108:18 *211:27 0.000324066
33 *108:18 *211:35 0.000218906
34 *156:31 *211:35 0
35 *156:39 *211:27 0.000765622
36 *163:6 *1432:A 0.000889097
37 *163:12 *1432:A 0.00146659
38 *165:51 *1428:A 1.46286e-05
39 *168:26 *1428:A 0.000186606
40 *179:127 *1432:A 0.000121256
41 *180:70 *211:46 0.000312494
42 *182:66 *211:35 0
43 *187:145 *211:59 0.000827881
44 *189:26 *211:35 0
45 *189:28 *211:35 0.000211272
46 *189:85 *211:35 0.000100519
47 *193:22 *1428:A 0.000232125
48 *199:46 *211:27 1.22822e-05
49 *203:31 *1427:A 0.000185325
50 *203:31 *211:10 0.000512883
51 *204:24 *211:59 0.000139352
52 *204:39 *211:59 5.67058e-05
53 *207:16 *211:59 1.0092e-05
54 *207:73 *211:59 7.94737e-05
55 *210:62 *211:27 0.000680374
*RES
1 *1515:Q *211:8 46.2443 
2 *211:8 *211:10 13.8786 
3 *211:10 *1427:A 40.61 
4 *211:10 *211:27 44.3964 
5 *211:27 *211:35 47.6043 
6 *211:35 *1428:A 25.5271 
7 *211:27 *211:46 22.2914 
8 *211:46 *1350:C 23 
9 *211:46 *211:59 48.5186 
10 *211:59 *1432:A 48.8721 
*END

*D_NET *212 0.0230944
*CONN
*I *1432:B I *D sky130_fd_sc_hd__and4_1
*I *1350:D I *D sky130_fd_sc_hd__and4_2
*I *1431:A I *D sky130_fd_sc_hd__inv_2
*I *1516:Q O *D sky130_fd_sc_hd__dfrtp_2
*CAP
1 *1432:B 0
2 *1350:D 9.74216e-05
3 *1431:A 0.000137103
4 *1516:Q 0.000640358
5 *212:40 0.000456179
6 *212:36 0.00268951
7 *212:23 0.00275116
8 *212:10 0.00228072
9 *212:8 0.00320438
10 *1431:A *224:65 0.000149887
11 *212:10 *214:24 0.00020946
12 *212:10 *225:35 0.000216689
13 *212:23 *225:35 8.13196e-05
14 *212:40 *221:48 0.00134206
15 *1422:A *212:36 0.000137361
16 *1463:A *212:36 0.000433252
17 *82:18 *212:10 0
18 *103:16 *212:10 0.000576754
19 *103:16 *212:23 0.000406412
20 *107:34 *212:8 0.000828927
21 *115:20 *212:10 0.000955368
22 *128:10 *212:10 0.000577429
23 *141:35 *212:36 0.000199072
24 *144:8 *212:10 8.62876e-05
25 *147:12 *212:40 0.00083221
26 *147:14 *212:40 0.000186025
27 *147:16 *212:40 0.000323822
28 *155:8 *212:36 9.55893e-06
29 *155:18 *212:10 0.000107232
30 *155:26 *212:10 0.000935461
31 *155:34 *212:10 0.000484739
32 *156:10 *212:10 0
33 *156:31 *212:23 0
34 *180:25 *1431:A 0.000284979
35 *180:58 *212:23 0.000298452
36 *201:56 *1431:A 0.000567245
37 *204:24 *212:36 4.74355e-05
38 *204:39 *212:36 0.00010323
39 *208:61 *212:36 0.000266898
40 *209:89 *212:36 0.00012692
41 *211:46 *1350:D 5.56279e-05
42 *211:59 *212:36 7.44161e-06
*RES
1 *1516:Q *212:8 47.1971 
2 *212:8 *212:10 46.98 
3 *212:10 *1431:A 44.3386 
4 *212:8 *212:23 23.5964 
5 *212:23 *1350:D 24.8229 
6 *212:23 *212:36 44.2071 
7 *212:36 *212:40 33.1043 
8 *212:40 *1432:B 23 
*END

*D_NET *213 0.0195395
*CONN
*I *1435:A I *D sky130_fd_sc_hd__nand2_1
*I *1350:B I *D sky130_fd_sc_hd__and4_2
*I *1434:A I *D sky130_fd_sc_hd__or2_1
*I *1517:Q O *D sky130_fd_sc_hd__dfrtp_1
*CAP
1 *1435:A 0.000231493
2 *1350:B 0.000464044
3 *1434:A 0.00109065
4 *1517:Q 0
5 *213:54 0.00121588
6 *213:35 0.00216351
7 *213:25 0.00156066
8 *213:21 0.00105859
9 *213:4 0.00130367
10 *1350:B *225:35 0.00011928
11 *1350:B *225:41 0.000422594
12 *213:35 *225:41 0.000307978
13 *1451:A_N *213:25 0.000658924
14 *1510:CLK *213:54 8.17328e-05
15 *1517:CLK *1434:A 8.58775e-05
16 *1517:RESET_B *1434:A 0.00013704
17 *22:12 *213:25 0.000485984
18 *26:20 *213:54 0.000427314
19 *55:10 *213:21 0.000335294
20 *62:8 *213:21 0
21 *64:8 *213:35 0.000185371
22 *65:10 *213:25 9.41704e-05
23 *113:26 *213:25 0.000293337
24 *134:47 *213:25 0.00104264
25 *147:72 *213:54 6.49713e-05
26 *163:48 *1435:A 3.7681e-05
27 *164:8 *1434:A 3.25284e-05
28 *175:62 *213:25 4.67488e-05
29 *179:131 *213:35 0
30 *180:137 *213:35 0.000562329
31 *184:59 *213:21 7.06313e-05
32 *186:117 *213:54 0.000219383
33 *188:29 *213:35 0
34 *188:31 *213:25 0.000290564
35 *188:37 *213:25 0.001293
36 *189:122 *213:35 0.000437695
37 *190:115 *213:25 0.000277792
38 *191:6 *1434:A 0.0010214
39 *199:107 *1435:A 0.000132933
40 *205:10 *213:54 6.26298e-05
41 *207:8 *213:35 5.84798e-05
42 *207:73 *213:54 2.69859e-05
43 *211:59 *1350:B 0.000820532
44 *211:59 *213:35 0.000317201
*RES
1 *1517:Q *213:4 23 
2 *213:4 *1434:A 43.3207 
3 *213:4 *213:21 34.7229 
4 *213:21 *213:25 49.4479 
5 *213:25 *213:35 47.1721 
6 *213:35 *1350:B 49.2271 
7 *213:35 *213:54 43.9614 
8 *213:54 *1435:A 41.9771 
*END

*D_NET *214 0.0270587
*CONN
*I *1350:A I *D sky130_fd_sc_hd__and4_2
*I *1438:A I *D sky130_fd_sc_hd__inv_2
*I *1518:Q O *D sky130_fd_sc_hd__dfrtp_2
*CAP
1 *1350:A 0
2 *1438:A 0.000420839
3 *1518:Q 0.0001057
4 *214:55 0.000612051
5 *214:42 0.000819272
6 *214:36 0.00178785
7 *214:28 0.00288375
8 *214:24 0.00186136
9 *214:14 0.000979071
10 *214:12 0.00203203
11 *214:10 0.00203203
12 *214:8 0.0001057
13 *214:12 *223:25 0.00039803
14 *214:24 *225:35 0.00051551
15 *214:36 *222:8 0.000385512
16 *214:42 *216:42 0.000876529
17 *214:42 *218:26 0.000174757
18 *214:55 *224:43 0.000210744
19 *214:55 *225:35 0.00113145
20 an[7] *214:8 2.42715e-05
21 *227:DIODE *214:36 0.000130779
22 *1339:A2 *214:55 2.68661e-05
23 *37:22 *214:12 0.000991359
24 *43:24 *214:36 0.000380465
25 *44:12 *214:12 0.000566305
26 *47:28 *214:36 8.62876e-05
27 *58:10 *214:12 0.00246094
28 *105:66 *214:42 0.0002499
29 *115:6 *214:12 9.67842e-05
30 *115:10 *214:24 0.000103433
31 *115:10 *214:55 1.3822e-05
32 *115:132 *214:55 0.000237844
33 *135:10 *1438:A 0.00085244
34 *138:6 *214:28 3.88133e-05
35 *155:18 *214:28 9.41704e-05
36 *167:6 *1438:A 7.27479e-05
37 *176:39 *1438:A 0.000372754
38 *179:10 *214:24 8.04857e-05
39 *180:31 *214:12 0.000298503
40 *180:44 *214:12 0.000178517
41 *191:41 *214:24 9.41704e-05
42 *192:20 *214:8 0.000187931
43 *202:63 *214:36 3.83778e-05
44 *209:35 *214:28 0.00160404
45 *210:29 *214:42 0.000235078
46 *212:10 *214:24 0.00020946
*RES
1 *1518:Q *214:8 40.61 
2 *214:8 *214:10 15 
3 *214:10 *214:12 46.835 
4 *214:12 *214:14 15 
5 *214:14 *214:24 38.4307 
6 *214:24 *214:28 35.155 
7 *214:28 *214:36 48.4979 
8 *214:36 *214:42 42.1179 
9 *214:42 *1438:A 34.1236 
10 *214:14 *214:55 30.9914 
11 *214:55 *1350:A 23 
*END

*D_NET *215 0.0201766
*CONN
*I *1441:B1 I *D sky130_fd_sc_hd__a21oi_2
*I *1442:A I *D sky130_fd_sc_hd__and3_2
*I *1351:C1 I *D sky130_fd_sc_hd__o211ai_4
*I *1519:Q O *D sky130_fd_sc_hd__dfrtp_4
*CAP
1 *1441:B1 0.000171977
2 *1442:A 0
3 *1351:C1 1.15349e-05
4 *1519:Q 0.000180311
5 *215:51 0.000594983
6 *215:45 0.00147253
7 *215:35 0.0013894
8 *215:31 0.00195859
9 *215:16 0.000287951
10 *215:8 0.00207544
11 *215:31 *216:42 0.000262303
12 *215:31 *223:23 0.000134984
13 *215:51 *1369:A 5.57593e-05
14 *1441:A1 *1441:B1 9.58714e-05
15 *1506:CLK *1441:B1 2.93747e-05
16 *1519:RESET_B *215:8 9.28078e-06
17 *33:16 *215:51 0.000831498
18 *55:10 *1441:B1 2.17571e-05
19 *80:14 *215:45 0.000196427
20 *89:14 *215:31 0.00166955
21 *94:20 *215:8 5.98919e-05
22 *94:20 *215:31 0.00227878
23 *102:16 *1351:C1 5.56356e-05
24 *102:16 *215:16 0.000229793
25 *103:73 *215:16 5.98919e-05
26 *111:14 *215:8 1.94328e-05
27 *111:14 *215:31 9.16036e-05
28 *125:18 *215:31 0.000554053
29 *125:18 *215:35 0.000145943
30 *129:84 *215:31 0.000593262
31 *130:10 *215:31 2.24151e-05
32 *139:51 *215:16 0.000847257
33 *143:8 *215:16 0.000669525
34 *143:14 *1351:C1 5.8118e-05
35 *143:14 *215:16 1.10658e-05
36 *147:96 *215:51 3.53051e-05
37 *168:70 *215:51 0.000348905
38 *169:8 *215:35 4.69174e-05
39 *170:30 *215:8 0
40 *174:44 *215:16 0
41 *175:34 *215:31 1.80918e-05
42 *175:34 *215:35 0.00033522
43 *177:20 *215:45 0.000410129
44 *180:80 *1441:B1 0.000183652
45 *180:80 *215:35 0.000163354
46 *184:8 *215:45 0.000298503
47 *184:12 *1441:B1 0.000172198
48 *184:12 *215:35 1.14452e-05
49 *184:27 *1441:B1 5.884e-05
50 *187:34 *215:45 9.41704e-05
51 *190:22 *215:31 0.000187573
52 *202:10 *215:51 0.000588075
53 *210:29 *215:8 0
54 *210:56 *215:51 7.80751e-05
*RES
1 *1519:Q *215:8 40.9621 
2 *215:8 *215:16 40.9993 
3 *215:16 *1351:C1 38.6214 
4 *215:8 *215:31 49.3311 
5 *215:31 *215:35 8.10964 
6 *215:35 *215:45 43.6507 
7 *215:45 *215:51 30.7221 
8 *215:51 *1442:A 23 
9 *215:35 *1441:B1 42.4121 
*END

*D_NET *216 0.0376696
*CONN
*I *1340:A I *D sky130_fd_sc_hd__inv_2
*I *1444:A I *D sky130_fd_sc_hd__or2_1
*I *1449:A2 I *D sky130_fd_sc_hd__o211a_1
*I *1445:A I *D sky130_fd_sc_hd__nand2_1
*I *1520:Q O *D sky130_fd_sc_hd__dfrtp_4
*CAP
1 *1340:A 0
2 *1444:A 0
3 *1449:A2 0
4 *1445:A 0
5 *1520:Q 0.000525877
6 *216:105 6.06653e-05
7 *216:99 0.00104979
8 *216:83 0.000726076
9 *216:68 0.000458324
10 *216:60 0.0019836
11 *216:54 0.00256416
12 *216:48 0.000569123
13 *216:42 0.0015443
14 *216:40 0.00155076
15 *216:32 0.00226544
16 *216:24 0.00324493
17 *216:18 0.00297604
18 *216:10 0.00127053
19 *216:32 *221:8 0.000971223
20 *216:40 *218:26 6.70361e-05
21 *216:42 *223:23 5.91135e-05
22 *216:54 *218:34 0.000124877
23 *216:83 *217:26 0.000159964
24 *232:DIODE *216:68 5.68958e-05
25 *1444:B *216:54 3.3123e-05
26 *1500:CLK *216:32 1.84917e-05
27 *1500:RESET_B *216:32 0.00118485
28 *1517:RESET_B *216:99 9.09342e-06
29 *1525:RESET_B *216:24 0.000178606
30 *26:8 *216:10 0.000191157
31 *42:30 *216:32 2.93283e-05
32 *52:26 *216:83 0.000121922
33 *53:12 *216:18 0.000695558
34 *54:18 *216:99 0.000362809
35 *55:18 *216:40 9.77894e-05
36 *55:18 *216:42 0.000590785
37 *70:32 *216:99 0.000271584
38 *80:14 *216:105 8.49072e-05
39 *84:78 *216:24 0.000391698
40 *86:10 *216:105 0
41 *95:109 *216:18 7.94187e-05
42 *105:30 *216:60 0.000572939
43 *105:66 *216:42 0.000182073
44 *105:107 *216:40 0.000156313
45 *115:60 *216:83 0.000159964
46 *118:16 *216:10 0.000188926
47 *120:46 *216:18 9.41704e-05
48 *129:10 *216:18 0.000163716
49 *139:51 *216:54 0
50 *141:16 *216:60 4.89774e-05
51 *144:16 *216:42 0.00166975
52 *148:16 *216:40 0.000416313
53 *148:16 *216:99 0.000804287
54 *170:26 *216:48 3.3577e-05
55 *170:30 *216:54 0.000208867
56 *170:58 *216:24 0.000243002
57 *170:58 *216:32 8.58827e-05
58 *172:10 *216:60 2.99277e-05
59 *174:38 *216:83 0.000138859
60 *175:34 *216:40 3.11765e-05
61 *175:34 *216:42 0.000163352
62 *175:34 *216:99 0.000808216
63 *175:47 *216:99 0.000421498
64 *175:62 *216:99 0.000361336
65 *180:48 *216:24 0.00056663
66 *180:58 *216:24 0.000336332
67 *180:156 *216:24 0.000226655
68 *184:97 *216:32 0.000217748
69 *185:92 *216:10 0.000256164
70 *188:81 *216:40 0.000135037
71 *200:63 *216:60 8.40585e-05
72 *200:63 *216:83 0.000161203
73 *200:65 *216:60 3.0918e-05
74 *200:75 *216:60 0.000174898
75 *204:39 *216:18 4.05745e-05
76 *208:69 *216:18 0.000265964
77 *210:29 *216:42 0.000481649
78 *214:42 *216:42 0.000876529
79 *215:31 *216:42 0.000262303
*RES
1 *1520:Q *216:10 49.3307 
2 *216:10 *216:18 47.1721 
3 *216:18 *216:24 45.5329 
4 *216:24 *216:32 38.6557 
5 *216:32 *216:40 37.3536 
6 *216:40 *216:42 38.8807 
7 *216:42 *216:48 18.9771 
8 *216:48 *216:54 36.8357 
9 *216:54 *216:60 36.2321 
10 *216:60 *216:68 37.7471 
11 *216:68 *1445:A 38 
12 *216:54 *216:83 41.455 
13 *216:83 *1449:A2 23 
14 *216:48 *1444:A 23 
15 *216:32 *216:99 40.4579 
16 *216:99 *216:105 31.2014 
17 *216:105 *1340:A 23 
*END

*D_NET *217 0.015193
*CONN
*I *1352:B1_N I *D sky130_fd_sc_hd__a21bo_2
*I *1449:A1 I *D sky130_fd_sc_hd__o211a_1
*I *1521:Q O *D sky130_fd_sc_hd__dfrtp_1
*CAP
1 *1352:B1_N 5.26621e-05
2 *1449:A1 0
3 *1521:Q 0
4 *217:41 0.000838538
5 *217:26 0.000697711
6 *217:18 0.00161555
7 *217:10 0.00262878
8 *217:6 0.000925062
9 *217:18 *221:12 0.000257724
10 *217:18 *225:18 0
11 *23:14 *217:10 0.00171067
12 *48:12 *217:18 0.000156016
13 *61:16 *217:18 0
14 *85:20 *217:10 6.08032e-05
15 *85:24 *217:18 0.000599331
16 *85:24 *217:41 8.52481e-05
17 *95:83 *217:41 0.00031609
18 *95:98 *217:41 0.000115954
19 *115:76 *1352:B1_N 1.3789e-05
20 *115:95 *1352:B1_N 3.83078e-05
21 *129:16 *217:41 0.000550761
22 *131:24 *217:10 0.000207919
23 *138:10 *217:41 0.000184582
24 *153:32 *217:10 0.00107746
25 *154:14 *1352:B1_N 2.65942e-05
26 *157:20 *217:18 0.000200626
27 *157:20 *217:41 0.000838969
28 *171:10 *217:10 0.000246693
29 *174:38 *217:18 3.32202e-05
30 *174:38 *217:26 0.000834743
31 *180:27 *217:41 0.000186981
32 *181:12 *217:18 0.000227654
33 *201:45 *217:18 0
34 *203:27 *217:10 0.000233558
35 *208:18 *217:26 7.10001e-05
36 *216:83 *217:26 0.000159964
*RES
1 *1521:Q *217:6 38 
2 *217:6 *217:10 40.8514 
3 *217:10 *217:18 49.285 
4 *217:18 *217:26 41.455 
5 *217:26 *1449:A1 23 
6 *217:10 *217:41 36.5014 
7 *217:41 *1352:B1_N 39.2687 
*END

*D_NET *218 0.0412727
*CONN
*I *1360:A I *D sky130_fd_sc_hd__nand3_1
*I *1364:A1 I *D sky130_fd_sc_hd__a31o_1
*I *1361:B1 I *D sky130_fd_sc_hd__a21o_1
*I *1342:B I *D sky130_fd_sc_hd__and4_4
*I *1497:Q O *D sky130_fd_sc_hd__dfrtp_4
*CAP
1 *1360:A 0
2 *1364:A1 0
3 *1361:B1 0.000114632
4 *1342:B 0
5 *1497:Q 0.000490503
6 *218:98 0.000394131
7 *218:88 0.00377784
8 *218:82 0.0042594
9 *218:72 0.00133352
10 *218:70 0.00155183
11 *218:62 0.00248725
12 *218:42 0.000976574
13 *218:34 0.00204741
14 *218:30 0.00126966
15 *218:26 0.00140288
16 *218:20 0.00187951
17 *218:14 0.00280448
18 *218:10 0.00134092
19 *218:42 *1342:A 4.96207e-05
20 *218:70 *226:27 1.01436e-05
21 *218:70 *226:71 0.000125761
22 *218:82 *226:39 4.6318e-06
23 *218:82 *226:52 3.33677e-05
24 *218:88 *224:8 5.3304e-05
25 an[4] *218:98 4.2812e-06
26 *1360:B *218:82 1.09903e-05
27 *1360:C *218:82 1.83327e-05
28 *1407:A *218:42 0.000356654
29 *1409:A *218:42 5.3304e-05
30 *1466:A *218:88 7.59794e-05
31 *1497:D *218:14 0.00022972
32 *1497:RESET_B *218:10 2.84479e-05
33 *1497:RESET_B *218:14 4.05979e-05
34 *1497:RESET_B *218:62 0.000186637
35 *28:8 *218:10 1.58201e-05
36 *32:18 *218:14 7.14493e-05
37 *36:12 *218:42 0.00093383
38 *46:10 *218:42 8.74947e-05
39 *50:30 *218:62 0.000106277
40 *94:10 *218:20 0.000244187
41 *95:24 *218:34 0.000992851
42 *95:47 *218:62 0.000215059
43 *103:63 *218:34 0.000155361
44 *103:73 *218:34 0
45 *105:30 *218:34 0
46 *105:66 *218:26 0.000833641
47 *105:107 *218:26 0.000315917
48 *107:20 *218:88 4.26677e-05
49 *110:10 *218:72 0.000211825
50 *128:22 *218:34 0.000215791
51 *129:84 *218:42 0.000139352
52 *139:51 *218:34 0
53 *147:66 *218:88 0.000130667
54 *148:16 *218:26 0.00156258
55 *149:6 *218:88 9.67842e-05
56 *149:12 *218:88 0.000126065
57 *150:12 *218:34 0.000118481
58 *156:56 *218:82 0.000342161
59 *160:37 *218:62 0
60 *164:10 *218:10 0
61 *166:10 *218:20 2.26385e-05
62 *176:12 *218:20 0.00108753
63 *176:39 *218:34 0
64 *179:93 *218:98 0
65 *182:72 *218:82 8.04817e-05
66 *184:31 *218:14 7.62357e-05
67 *184:31 *218:62 0.000126174
68 *188:65 *218:70 0.000138145
69 *188:81 *218:26 0.000171564
70 *196:10 *218:20 0.000631938
71 *196:28 *218:34 0
72 *199:27 *218:82 8.48502e-06
73 *199:46 *218:70 0.000685259
74 *199:62 *1361:B1 0.000428832
75 *199:62 *218:30 0.000267511
76 *199:99 *218:82 0.000301116
77 *201:37 *218:42 2.02872e-05
78 *206:58 *218:88 0.000262858
79 *206:69 *218:88 0.00107309
80 *210:29 *218:26 3.673e-05
81 *210:33 *1361:B1 0.000441269
82 *210:33 *218:30 0.000265023
83 *210:62 *218:70 6.64565e-05
84 *210:66 *218:72 0.000309622
85 *210:66 *218:82 1.59071e-05
86 *210:89 *218:82 1.83618e-05
87 *214:42 *218:26 0.000174757
88 *216:40 *218:26 6.70361e-05
89 *216:54 *218:34 0.000124877
*RES
1 *1497:Q *218:10 46.1407 
2 *218:10 *218:14 26.1029 
3 *218:14 *218:20 45.9914 
4 *218:20 *218:26 43.4407 
5 *218:26 *218:30 18.0036 
6 *218:30 *218:34 35.5693 
7 *218:34 *218:42 35.7971 
8 *218:42 *1342:B 23 
9 *218:30 *1361:B1 27.9093 
10 *218:14 *218:62 48.8293 
11 *218:62 *218:70 44.9143 
12 *218:70 *218:72 8.24429 
13 *218:72 *218:82 42.2007 
14 *218:82 *218:88 44.8464 
15 *218:88 *218:98 36.5457 
16 *218:98 *1364:A1 23 
17 *218:72 *1360:A 23 
*END

*D_NET *219 0.0339811
*CONN
*I *1364:B1 I *D sky130_fd_sc_hd__a31o_1
*I *236:DIODE I *D sky130_fd_sc_hd__diode_2
*I *1342:A I *D sky130_fd_sc_hd__and4_4
*I *1498:Q O *D sky130_fd_sc_hd__dfrtp_2
*CAP
1 *1364:B1 0
2 *236:DIODE 0
3 *1342:A 0.00034675
4 *1498:Q 2.70767e-05
5 *219:48 0.0011352
6 *219:44 0.00149918
7 *219:20 0.00041901
8 *219:16 0.00147399
9 *219:14 0.00629606
10 *219:10 0.00528538
11 *1364:A2 *219:48 0.000114656
12 *1364:A3 *219:48 0.00185386
13 *1404:B *219:48 5.18286e-05
14 *1407:A *1342:A 0.000236466
15 *1407:A *219:20 3.29546e-05
16 *1510:RESET_B *219:44 0.000192649
17 *25:16 *219:16 0.00125173
18 *26:20 *219:48 0.00103194
19 *27:8 *219:48 4.82702e-05
20 *45:26 *219:14 0
21 *76:36 *219:44 0
22 *84:57 *219:14 0.000220603
23 *95:8 *219:16 0
24 *95:109 *219:10 4.5745e-05
25 *110:24 *219:14 8.73121e-05
26 *120:10 *219:10 4.5745e-05
27 *136:8 *219:16 0.00398164
28 *148:14 *219:14 0.00044495
29 *150:38 *219:14 0.000469968
30 *165:18 *219:44 0
31 *172:10 *219:16 0
32 *190:28 *219:16 0.000530273
33 *198:16 *219:14 0.00215904
34 *198:16 *219:44 0.000322842
35 *206:49 *219:14 0.000299463
36 *209:14 *219:16 0.00230343
37 *210:89 *219:14 0.00150742
38 *210:89 *219:44 0.000216019
39 *218:42 *1342:A 4.96207e-05
*RES
1 *1498:Q *219:10 46.6732 
2 *219:10 *219:14 21.5371 
3 *219:14 *219:16 60.8896 
4 *219:16 *219:20 16.0979 
5 *219:20 *1342:A 29.8564 
6 *219:20 *236:DIODE 23 
7 *219:10 *219:44 26.4431 
8 *219:44 *219:48 28.7514 
9 *219:48 *1364:B1 23 
*END

*D_NET *220 0.0416243
*CONN
*I *1373:B I *D sky130_fd_sc_hd__and3_1
*I *1343:D I *D sky130_fd_sc_hd__and4_1
*I *1368:A I *D sky130_fd_sc_hd__nand2_1
*I *1372:A1 I *D sky130_fd_sc_hd__a21oi_1
*I *1369:A I *D sky130_fd_sc_hd__or2_1
*I *1499:Q O *D sky130_fd_sc_hd__dfrtp_4
*CAP
1 *1373:B 4.84341e-05
2 *1343:D 0
3 *1368:A 0
4 *1372:A1 0
5 *1369:A 9.34574e-05
6 *1499:Q 0.000292396
7 *220:104 0.00178126
8 *220:102 0.00285606
9 *220:89 0.001914
10 *220:77 0.00168898
11 *220:66 0.00246413
12 *220:55 0.00250401
13 *220:40 0.00205823
14 *220:20 0.00276248
15 *220:12 0.00297486
16 *220:8 0.00153144
17 *1373:B *1373:A 1.39431e-05
18 *220:55 *1372:B1 0.000272099
19 *220:66 *1372:B1 9.58714e-05
20 *220:89 *1343:B 0.000211448
21 *220:89 *221:37 1.32314e-05
22 *220:89 *221:46 4.17736e-05
23 *220:102 *221:46 0.000617257
24 *1384:A *220:12 0.000594365
25 *1430:A *220:20 0.000333898
26 *29:32 *220:20 0.000285741
27 *33:16 *1369:A 5.36496e-06
28 *39:22 *220:40 0.000346091
29 *44:12 *220:89 0.000715964
30 *46:16 *220:8 0.000399427
31 *67:10 *220:77 7.83074e-05
32 *80:14 *1369:A 9.41704e-05
33 *88:50 *220:40 0
34 *95:36 *220:40 0.000662403
35 *95:79 *220:66 0.000612634
36 *106:31 *220:104 0
37 *110:24 *220:40 1.28158e-05
38 *110:30 *220:8 0.000569052
39 *113:16 *220:104 0.000548044
40 *115:60 *220:20 0.000497879
41 *117:26 *220:104 0.00066363
42 *118:10 *220:104 6.3852e-05
43 *118:16 *220:104 0.00232203
44 *122:16 *220:102 0.000301116
45 *129:10 *220:89 0.000211448
46 *153:10 *220:40 0.000144446
47 *154:10 *220:104 0.000294915
48 *168:20 *220:40 4.96811e-06
49 *168:26 *220:20 0.000175903
50 *179:24 *220:55 0.000175705
51 *180:27 *220:66 0.000289695
52 *180:27 *220:77 0.00195153
53 *182:34 *220:40 0.00105052
54 *182:53 *220:40 8.83358e-05
55 *187:34 *1369:A 9.41704e-05
56 *187:66 *220:20 4.80785e-07
57 *187:66 *220:40 4.43469e-05
58 *189:34 *220:12 0.000134074
59 *189:34 *220:55 0.000193249
60 *191:41 *220:77 0.000568453
61 *191:43 *220:66 0.000207219
62 *191:43 *220:77 0.00120597
63 *191:51 *220:66 8.72173e-05
64 *193:22 *220:20 0.000178227
65 *200:88 *220:8 0
66 *200:97 *220:8 4.73626e-05
67 *207:114 *220:66 0.000611616
68 *208:18 *220:20 0.000268244
69 *210:52 *220:20 0.000132638
70 *210:56 *1369:A 6.56284e-05
71 *215:51 *1369:A 5.57593e-05
*RES
1 *1499:Q *220:8 45.8921 
2 *220:8 *220:12 31.82 
3 *220:12 *220:20 49.8029 
4 *220:20 *220:40 45.4636 
5 *220:40 *1369:A 48.1232 
6 *220:12 *220:55 13.0086 
7 *220:55 *1372:A1 23 
8 *220:55 *220:66 39.65 
9 *220:66 *1368:A 38 
10 *220:66 *220:77 42.26 
11 *220:77 *220:89 42.325 
12 *220:89 *1343:D 23 
13 *220:89 *220:102 31.0329 
14 *220:102 *220:104 46.98 
15 *220:104 *1373:B 38.6214 
*END

*D_NET *221 0.0275047
*CONN
*I *1373:A I *D sky130_fd_sc_hd__and3_1
*I *1343:C I *D sky130_fd_sc_hd__and4_1
*I *1372:B1 I *D sky130_fd_sc_hd__a21oi_1
*I *1500:Q O *D sky130_fd_sc_hd__dfrtp_2
*CAP
1 *1373:A 0.000174018
2 *1343:C 0
3 *1372:B1 8.25929e-05
4 *1500:Q 0.000422583
5 *221:48 0.00174743
6 *221:46 0.00215077
7 *221:37 0.00274628
8 *221:12 0.00153227
9 *221:10 0.00387023
10 *221:8 0.000674222
11 *221:10 *222:38 4.03628e-05
12 *221:12 *222:10 1.12487e-05
13 *221:12 *226:16 0
14 *221:37 *224:53 0.00017761
15 *1373:B *1373:A 1.39431e-05
16 *1377:C *221:48 0.000380432
17 *1394:A *221:48 5.92429e-05
18 *47:93 *221:48 0.000384602
19 *48:12 *221:12 0.000579949
20 *48:16 *221:10 0.000559061
21 *48:16 *221:12 0.000989068
22 *85:33 *221:37 0.00105351
23 *95:68 *1372:B1 5.50049e-05
24 *95:79 *1372:B1 0.000125213
25 *95:137 *1373:A 0.000385315
26 *118:16 *221:48 0
27 *120:6 *1373:A 0.000119969
28 *147:10 *221:48 0.000266192
29 *147:16 *221:48 0.00029061
30 *159:14 *221:37 5.3304e-05
31 *159:22 *221:10 3.33144e-05
32 *159:22 *221:12 0.000772542
33 *162:24 *221:10 0.000100681
34 *162:24 *221:12 0.000146259
35 *170:58 *221:8 0.000555167
36 *179:24 *1372:B1 0.00014196
37 *179:24 *221:12 0.000106436
38 *181:31 *221:12 0.000619235
39 *188:65 *221:10 0.00044574
40 *189:18 *221:37 0.000357208
41 *189:34 *1372:B1 1.72202e-05
42 *190:58 *221:37 0.000167892
43 *190:73 *221:37 1.21972e-05
44 *190:86 *221:37 0.000119761
45 *190:103 *221:8 0.000105849
46 *207:106 *221:48 0.00123572
47 *209:89 *221:48 1.12487e-05
48 *212:40 *221:48 0.00134206
49 *216:32 *221:8 0.000971223
50 *217:18 *221:12 0.000257724
51 *220:55 *1372:B1 0.000272099
52 *220:66 *1372:B1 9.58714e-05
53 *220:89 *221:37 1.32314e-05
54 *220:89 *221:46 4.17736e-05
55 *220:102 *221:46 0.000617257
*RES
1 *1500:Q *221:8 49.1029 
2 *221:8 *221:10 7.89214 
3 *221:10 *221:12 35.0071 
4 *221:12 *1372:B1 41.9564 
5 *221:10 *221:37 48.8679 
6 *221:37 *1343:C 23 
7 *221:37 *221:46 27.0557 
8 *221:46 *221:48 44.8671 
9 *221:48 *1373:A 43.3857 
*END

*D_NET *222 0.0144761
*CONN
*I *1375:A I *D sky130_fd_sc_hd__or2_1
*I *1343:B I *D sky130_fd_sc_hd__and4_1
*I *1376:A I *D sky130_fd_sc_hd__nand2_1
*I *1501:Q O *D sky130_fd_sc_hd__dfrtp_1
*CAP
1 *1375:A 0
2 *1343:B 0.000164903
3 *1376:A 0
4 *1501:Q 0.000429225
5 *222:38 0.000707025
6 *222:18 0.000238233
7 *222:14 0.00121059
8 *222:10 0.00195263
9 *222:8 0.000537573
10 *222:10 *226:16 1.22906e-05
11 *222:38 *226:16 0.000411489
12 *1399:A1 *222:14 2.02872e-05
13 *1399:B1 *222:14 0.000136738
14 *1500:RESET_B *222:38 0.000136642
15 *1514:RESET_B *222:14 0.00190448
16 *43:24 *222:8 0.000716263
17 *95:109 *1343:B 0.000354841
18 *95:109 *222:18 0.000163709
19 *110:24 *222:38 0.000127194
20 *129:10 *1343:B 7.47665e-05
21 *129:10 *222:18 7.97389e-05
22 *134:94 *222:14 0.000178517
23 *155:18 *222:14 5.60862e-05
24 *155:49 *222:10 0.000184816
25 *155:49 *222:38 0.000295345
26 *159:22 *222:8 0.000221715
27 *159:22 *222:10 0.000184825
28 *159:22 *222:38 0.000611751
29 *188:65 *222:38 0.000621818
30 *203:12 *222:14 0.00207146
31 *209:35 *222:14 2.25927e-05
32 *214:36 *222:8 0.000385512
33 *220:89 *1343:B 0.000211448
34 *221:10 *222:38 4.03628e-05
35 *221:12 *222:10 1.12487e-05
*RES
1 *1501:Q *222:8 48.15 
2 *222:8 *222:10 2.96214 
3 *222:10 *222:14 45.16 
4 *222:14 *222:18 17.2579 
5 *222:18 *1376:A 38 
6 *222:18 *1343:B 43.075 
7 *222:10 *222:38 33.8086 
8 *222:38 *1375:A 23 
*END

*D_NET *223 0.0161967
*CONN
*I *1343:A I *D sky130_fd_sc_hd__and4_1
*I *1379:A I *D sky130_fd_sc_hd__inv_2
*I *1502:Q O *D sky130_fd_sc_hd__dfrtp_1
*CAP
1 *1343:A 0
2 *1379:A 0.00146403
3 *1502:Q 0
4 *223:31 8.79663e-05
5 *223:25 0.00174617
6 *223:23 0.00173849
7 *223:4 0.00154431
8 *1439:B *1379:A 0.00117765
9 *1446:A *223:25 0.000372118
10 *44:12 *223:25 0.00370758
11 *86:55 *223:25 0.000775619
12 *95:109 *223:31 0.000185268
13 *105:70 *223:25 0.000256699
14 *105:74 *223:25 0.00105073
15 *115:6 *223:25 0.000260323
16 *125:18 *223:25 0.000539929
17 *168:8 *1379:A 1.61361e-05
18 *172:22 *223:25 2.99898e-05
19 *180:31 *223:25 0.000298503
20 *180:44 *223:25 0.000167786
21 *205:10 *223:31 0.000185268
22 *214:12 *223:25 0.00039803
23 *215:31 *223:23 0.000134984
24 *216:42 *223:23 5.91135e-05
*RES
1 *1502:Q *223:4 23 
2 *223:4 *1379:A 43.445 
3 *223:4 *223:23 31.9057 
4 *223:23 *223:25 53.505 
5 *223:25 *223:31 32.61 
6 *223:31 *1343:A 23 
*END

*D_NET *224 0.0335614
*CONN
*I *1386:B I *D sky130_fd_sc_hd__and4_2
*I *1385:A1 I *D sky130_fd_sc_hd__a21oi_1
*I *1382:A I *D sky130_fd_sc_hd__nand2_1
*I *1349:A1 I *D sky130_fd_sc_hd__o31a_1
*I *1381:A I *D sky130_fd_sc_hd__or2_1
*I *1503:Q O *D sky130_fd_sc_hd__dfrtp_4
*CAP
1 *1386:B 0
2 *1385:A1 4.99221e-05
3 *1382:A 0.000166584
4 *1349:A1 0
5 *1381:A 0
6 *1503:Q 2.32701e-05
7 *224:100 0.00121736
8 *224:71 0.000211222
9 *224:65 0.0010464
10 *224:59 0.00193323
11 *224:53 0.00142818
12 *224:43 0.000903608
13 *224:24 0.000866816
14 *224:18 0.00296395
15 *224:14 0.00366268
16 *224:8 0.00211603
17 *224:43 *226:39 1.83344e-05
18 *224:59 *225:54 0.000122725
19 *1339:A2 *224:14 1.21972e-05
20 *1339:A2 *224:18 1.94693e-05
21 *1339:A2 *224:43 8.44532e-05
22 *1394:C *224:100 0.000528025
23 *1431:A *224:65 0.000149887
24 *1503:RESET_B *224:100 0
25 *1524:CLK *224:43 1.61361e-05
26 *40:14 *224:24 0.00181434
27 *40:26 *224:14 0.000421934
28 *40:26 *224:100 0.000170224
29 *45:26 *224:24 5.62433e-06
30 *53:12 *224:14 1.73274e-05
31 *53:12 *224:18 2.53954e-05
32 *66:14 *224:43 2.92911e-06
33 *80:8 *224:18 0.0019558
34 *80:14 *224:18 9.51273e-05
35 *80:14 *224:24 0.000616673
36 *81:14 *224:43 2.64616e-05
37 *81:14 *224:53 8.4047e-05
38 *84:82 *224:43 0.000392619
39 *84:82 *224:59 0.00186533
40 *97:12 *224:59 0.000186488
41 *97:18 *224:59 5.58473e-05
42 *97:18 *224:65 0.00100082
43 *97:18 *224:71 0
44 *104:16 *224:71 0
45 *105:14 *224:59 7.11691e-05
46 *105:14 *224:65 0.000173919
47 *108:18 *224:24 0.000212115
48 *115:10 *224:59 0.000703903
49 *115:20 *224:59 0.000187917
50 *115:132 *224:43 0.000238618
51 *115:132 *224:59 0.000206046
52 *120:46 *224:14 0.000468897
53 *126:28 *224:59 0.000185018
54 *126:28 *224:65 0.000113946
55 *138:10 *224:71 0
56 *143:22 *224:65 0.000295486
57 *143:30 *224:59 8.65616e-06
58 *143:30 *224:65 0
59 *149:12 *224:8 5.3304e-05
60 *149:44 *224:100 0.000115197
61 *153:32 *1385:A1 5.3304e-05
62 *157:10 *224:53 3.67236e-05
63 *157:14 *224:53 9.87896e-07
64 *168:51 *224:24 0.000474332
65 *177:20 *224:24 0.000350757
66 *179:10 *224:59 0.000149029
67 *179:18 *224:59 0.000113926
68 *179:110 *224:14 0.000110922
69 *179:127 *224:14 0.000221429
70 *179:127 *224:100 0.000370933
71 *180:25 *1382:A 9.86777e-06
72 *180:25 *224:65 0.000409295
73 *180:27 *224:71 4.69488e-06
74 *182:72 *224:43 0
75 *190:62 *224:14 7.78047e-05
76 *190:62 *224:100 0.000185134
77 *190:109 *224:18 0.000219383
78 *191:51 *1382:A 0.000215501
79 *191:51 *224:71 1.0092e-05
80 *201:14 *224:24 0.000226663
81 *201:56 *1382:A 0.000437567
82 *201:56 *224:65 4.21362e-05
83 *207:122 *224:65 8.76131e-05
84 *214:55 *224:43 0.000210744
85 *218:88 *224:8 5.3304e-05
86 *221:37 *224:53 0.00017761
*RES
1 *1503:Q *224:8 38.6214 
2 *224:8 *224:14 30.0593 
3 *224:14 *224:18 29.2279 
4 *224:18 *224:24 40.9757 
5 *224:24 *1381:A 38 
6 *224:14 *224:43 43.1743 
7 *224:43 *224:53 48.2521 
8 *224:53 *224:59 30.8436 
9 *224:59 *224:65 33.3114 
10 *224:65 *224:71 32.61 
11 *224:71 *1349:A1 23 
12 *224:65 *1382:A 28.7586 
13 *224:59 *1385:A1 38.6214 
14 *224:8 *224:100 38.2621 
15 *224:100 *1386:B 23 
*END

*D_NET *225 0.0296181
*CONN
*I *1385:B1 I *D sky130_fd_sc_hd__a21oi_1
*I *1386:A I *D sky130_fd_sc_hd__and4_2
*I *1346:C I *D sky130_fd_sc_hd__or4_1
*I *1504:Q O *D sky130_fd_sc_hd__dfrtp_1
*CAP
1 *1385:B1 0
2 *1386:A 0
3 *1346:C 0
4 *1504:Q 0.00102801
5 *225:54 0.000349741
6 *225:41 0.000876313
7 *225:35 0.00243939
8 *225:31 0.00156307
9 *225:29 0.000988037
10 *225:18 0.000688832
11 *225:12 0.00132713
12 *225:10 0.00102801
13 *230:DIODE *225:41 0.000141052
14 *1350:B *225:35 0.00011928
15 *1350:B *225:41 0.000422594
16 *1394:C *225:41 0.000474176
17 *1414:B *225:10 0.000181131
18 *1504:RESET_B *225:10 0.00164871
19 *22:8 *225:41 6.9805e-05
20 *22:12 *225:41 0.00100103
21 *38:14 *225:18 0.00123251
22 *38:14 *225:29 0.000196985
23 *46:16 *225:10 9.41704e-05
24 *57:14 *225:29 0.00167471
25 *57:14 *225:54 8.30586e-05
26 *68:16 *225:18 0.000946744
27 *68:16 *225:29 0.00020503
28 *97:55 *225:29 0.00103903
29 *97:55 *225:54 9.41704e-05
30 *103:16 *225:35 0.000976051
31 *105:14 *225:54 2.5597e-05
32 *115:20 *225:35 0.000621372
33 *134:47 *225:41 0.000139352
34 *141:14 *225:35 6.10551e-06
35 *142:34 *225:35 8.85189e-05
36 *143:30 *225:35 0.000774562
37 *143:30 *225:54 0.000411806
38 *144:8 *225:35 8.62876e-05
39 *159:30 *225:29 4.98398e-05
40 *167:18 *225:10 6.68822e-05
41 *174:38 *225:18 0.0002754
42 *176:43 *225:10 0.00120256
43 *179:10 *225:35 0.000137715
44 *179:18 *225:29 0.00012811
45 *180:58 *225:35 7.72602e-06
46 *180:125 *225:35 1.63828e-05
47 *181:12 *225:18 2.26385e-05
48 *194:24 *225:29 9.46658e-05
49 *199:12 *225:41 0.000791132
50 *199:99 *225:41 0.000126192
51 *200:63 *225:18 0.000319842
52 *204:24 *225:35 0.000317341
53 *204:24 *225:41 0.000154807
54 *207:16 *225:41 7.43426e-05
55 *207:26 *225:41 0.000357046
56 *211:59 *225:35 4.99125e-06
57 *211:59 *225:41 5.24115e-05
58 *212:10 *225:35 0.000216689
59 *212:23 *225:35 8.13196e-05
60 *213:35 *225:41 0.000307978
61 *214:24 *225:35 0.00051551
62 *214:55 *225:35 0.00113145
63 *217:18 *225:18 0
64 *224:59 *225:54 0.000122725
*RES
1 *1504:Q *225:10 49.0379 
2 *225:10 *225:12 15 
3 *225:12 *225:18 35.5279 
4 *225:18 *1346:C 23 
5 *225:12 *225:29 36.6879 
6 *225:29 *225:31 15 
7 *225:31 *225:35 42.1432 
8 *225:35 *225:41 45.4604 
9 *225:41 *1386:A 23 
10 *225:29 *225:54 37.2293 
11 *225:54 *1385:B1 23 
*END

*D_NET *226 0.0380426
*CONN
*I *1336:A1 I *D sky130_fd_sc_hd__a21oi_1
*I *1333:A1_N I *D sky130_fd_sc_hd__o2bb2a_1
*I *1327:A I *D sky130_fd_sc_hd__and3_2
*I *1339:A1 I *D sky130_fd_sc_hd__a21oi_1
*I *1338:A1 I *D sky130_fd_sc_hd__a21oi_1
*I *1522:Q O *D sky130_fd_sc_hd__dfrtp_4
*CAP
1 *1336:A1 0.000626676
2 *1333:A1_N 0
3 *1327:A 0
4 *1339:A1 0
5 *1338:A1 0.000127952
6 *1522:Q 2.05553e-05
7 *226:80 0.00153891
8 *226:71 0.00103017
9 *226:60 0.000220201
10 *226:54 0.00278195
11 *226:52 0.00290179
12 *226:39 0.000539998
13 *226:33 0.00213658
14 *226:27 0.00250389
15 *226:16 0.00214843
16 *226:10 0.00187603
17 *226:6 0.00100552
18 *1335:A *226:6 5.3304e-05
19 *1335:A *226:10 0.000175903
20 *1338:A2 *1338:A1 5.3304e-05
21 *1339:A2 *226:39 0.000386916
22 *1459:A1 *226:71 9.41704e-05
23 *1500:RESET_B *226:16 0.000134411
24 *1503:RESET_B *226:52 9.03415e-07
25 *1520:RESET_B *226:60 0
26 *30:6 *1338:A1 3.12704e-05
27 *50:30 *226:27 4.60157e-05
28 *53:12 *226:39 0.000183547
29 *61:16 *226:16 0.000588876
30 *87:22 *226:80 9.8483e-05
31 *89:12 *226:71 5.50106e-05
32 *97:61 *226:80 0.000186763
33 *101:12 *226:80 5.78586e-05
34 *110:24 *226:16 0.000101418
35 *120:46 *226:39 2.33476e-05
36 *131:24 *1336:A1 0.000144449
37 *139:14 *226:52 0.000121649
38 *143:14 *1336:A1 0.000938046
39 *147:82 *226:71 0.000153784
40 *155:49 *226:16 0.000467786
41 *158:10 *226:16 0.000327716
42 *158:18 *226:39 0.000112756
43 *174:30 *226:80 0.00135744
44 *175:51 *226:71 0.0020453
45 *181:31 *226:6 4.08664e-05
46 *181:31 *226:10 0.000178391
47 *182:72 *226:39 8.48238e-05
48 *182:72 *226:52 4.24534e-05
49 *186:125 *226:52 0.000161307
50 *187:111 *1338:A1 0.00030373
51 *187:145 *226:39 0.000312436
52 *187:145 *226:52 0.000218143
53 *187:145 *226:54 2.64616e-05
54 *187:152 *226:54 0.00169764
55 *188:65 *226:16 0.000149884
56 *188:65 *226:27 0.000102449
57 *188:65 *226:71 2.65956e-05
58 *189:95 *1338:A1 6.37748e-05
59 *189:99 *226:71 0.000104329
60 *191:30 *226:16 0.000325121
61 *192:10 *226:60 0.000463479
62 *199:46 *226:33 0.000858051
63 *199:99 *226:33 0.000435371
64 *203:39 *226:71 0.00110742
65 *203:62 *226:71 7.93878e-05
66 *206:16 *226:27 1.6873e-05
67 *206:16 *226:71 0.000164181
68 *206:24 *226:16 0.000822596
69 *206:24 *226:27 0.000115812
70 *206:26 *226:80 0.00186189
71 *207:73 *226:52 0.000110922
72 *208:55 *226:39 0.000153123
73 *218:70 *226:27 1.01436e-05
74 *218:70 *226:71 0.000125761
75 *218:82 *226:39 4.6318e-06
76 *218:82 *226:52 3.33677e-05
77 *221:12 *226:16 0
78 *222:10 *226:16 1.22906e-05
79 *222:38 *226:16 0.000411489
80 *224:43 *226:39 1.83344e-05
*RES
1 *1522:Q *226:6 23.6214 
2 *226:6 *226:10 17.0507 
3 *226:10 *226:16 37.1821 
4 *226:16 *1338:A1 41.48 
5 *226:16 *226:27 4.37071 
6 *226:27 *226:33 46.82 
7 *226:33 *226:39 27.4079 
8 *226:39 *1339:A1 23 
9 *226:33 *226:52 22.6021 
10 *226:52 *226:54 35.8771 
11 *226:54 *226:60 36.1314 
12 *226:60 *1327:A 23 
13 *226:27 *226:71 47.0709 
14 *226:71 *1333:A1_N 23 
15 *226:6 *226:80 41.2036 
16 *226:80 *1336:A1 48.15 
*END
